 Self-assembly

5586 atoms
5537 bonds
8134 angles
931 dihedrals
0 impropers

6 atom types
4 bond types
3 angle types
1 dihedral types
0 improper types

0 200 xlo xhi
0 200 ylo yhi
0 200 zlo zhi

 Masses

1 100.0
2 10.0
3 10.0
4 10.0
5 10.0
6 100.0

 Atoms

1 1 1 0 30.0 30.0 30.0
2 1 2 0 31.09696551146029 30.0 30.633333333333333
3 1 3 -0.6666666666666666 31.09696551146029 32.38 30.633333333333333
4 1 4 0 32.19393102292058 30.0 31.266666666666666
5 1 5 0.6666666666666666 32.19393102292058 27.62 31.266666666666666
6 1 1 0 33.29089653438086 30.0 31.9
7 1 2 0 34.38786204584115 30.0 31.266666666666666
8 1 3 -0.6666666666666666 34.38786204584115 27.62 31.266666666666666
9 1 4 0 35.48482755730144 30.0 30.633333333333333
10 1 5 0.6666666666666666 35.48482755730144 32.38 30.633333333333333
11 1 6 0 33.29089653438086 30.0 36.14
12 1 1 0 36.58179306876173 30.0 30.0
13 1 2 0 37.67875858022202 30.0 30.633333333333333
14 1 3 -0.6666666666666666 37.67875858022202 32.38 30.633333333333333
15 1 4 0 38.775724091682314 30.0 31.266666666666666
16 1 5 0.6666666666666666 38.775724091682314 27.62 31.266666666666666
17 1 6 0 36.58179306876173 30.0 25.759999999999998
18 1 1 0 39.872689603142604 30.0 31.9
19 1 2 0 40.969655114602894 30.0 31.266666666666666
20 1 3 -0.6666666666666666 40.969655114602894 27.62 31.266666666666666
21 1 4 0 42.066620626063184 30.0 30.633333333333333
22 1 5 0.6666666666666666 42.066620626063184 32.38 30.633333333333333
23 1 6 0 39.872689603142604 30.0 36.14
24 1 1 0 43.16358613752347 30.0 30.0
25 1 2 0 44.26055164898376 30.0 30.633333333333333
26 1 3 -0.6666666666666666 44.26055164898376 32.38 30.633333333333333
27 1 4 0 45.35751716044405 30.0 31.266666666666666
28 1 5 0.6666666666666666 45.35751716044405 27.62 31.266666666666666
29 1 6 0 43.16358613752347 30.0 25.759999999999998
30 1 1 0 46.45448267190433 30.0 31.9
31 1 2 0 47.55144818336462 30.0 31.266666666666666
32 1 3 -0.6666666666666666 47.55144818336462 27.62 31.266666666666666
33 1 4 0 48.64841369482491 30.0 30.633333333333333
34 1 5 0.6666666666666666 48.64841369482491 32.38 30.633333333333333
35 1 6 0 46.45448267190433 30.0 36.14
36 1 1 0 49.7453792062852 30.0 30.0
37 1 2 0 50.84234471774549 30.0 30.633333333333333
38 1 3 -0.6666666666666666 50.84234471774549 32.38 30.633333333333333
39 1 4 0 51.93931022920578 30.0 31.266666666666666
40 1 5 0.6666666666666666 51.93931022920578 27.62 31.266666666666666
41 1 6 0 49.7453792062852 30.0 25.759999999999998
42 1 1 0 53.03627574066607 30.0 31.9
43 1 2 0 54.13324125212636 30.0 31.266666666666666
44 1 3 -0.6666666666666666 54.13324125212636 27.62 31.266666666666666
45 1 4 0 55.23020676358665 30.0 30.633333333333333
46 1 5 0.6666666666666666 55.23020676358665 32.38 30.633333333333333
47 1 6 0 53.03627574066607 30.0 36.14
48 1 1 0 56.327172275046934 30.0 30.0
49 1 2 0 57.424137786507224 30.0 30.633333333333333
50 1 3 -0.6666666666666666 57.424137786507224 32.38 30.633333333333333
51 1 4 0 58.521103297967514 30.0 31.266666666666666
52 1 5 0.6666666666666666 58.521103297967514 27.62 31.266666666666666
53 1 6 0 56.327172275046934 30.0 25.759999999999998
54 1 1 0 59.6180688094278 30.0 31.9
55 1 2 0 60.71503432088809 30.0 31.266666666666666
56 1 3 -0.6666666666666666 60.71503432088809 27.62 31.266666666666666
57 1 4 0 61.81199983234838 30.0 30.633333333333333
58 1 5 0.6666666666666666 61.81199983234838 32.38 30.633333333333333
59 1 6 0 59.6180688094278 30.0 36.14
60 1 1 0 62.90896534380867 30.0 30.0
61 1 2 0 64.00593085526896 30.0 30.633333333333333
62 1 3 -0.6666666666666666 64.00593085526896 32.38 30.633333333333333
63 1 4 0 65.10289636672924 30.0 31.266666666666666
64 1 5 0.6666666666666666 65.10289636672924 27.62 31.266666666666666
65 1 6 0 62.90896534380867 30.0 25.759999999999998
66 1 1 0 66.19986187818954 30.0 31.9
67 1 2 0 67.29682738964982 30.0 31.266666666666666
68 1 3 -0.6666666666666666 67.29682738964982 27.62 31.266666666666666
69 1 4 0 68.39379290111012 30.0 30.633333333333333
70 1 5 0.6666666666666666 68.39379290111012 32.38 30.633333333333333
71 1 6 0 66.19986187818954 30.0 36.14
72 1 1 0 69.4907584125704 30.0 30.0
73 1 2 0 70.58772392403068 30.0 30.633333333333333
74 1 3 -0.6666666666666666 70.58772392403068 32.38 30.633333333333333
75 1 4 0 71.68468943549098 30.0 31.266666666666666
76 1 5 0.6666666666666666 71.68468943549098 27.62 31.266666666666666
77 1 6 0 69.4907584125704 30.0 25.759999999999998
78 1 1 0 72.78165494695126 30.0 31.9
79 1 2 0 73.87862045841155 30.0 31.266666666666666
80 1 3 -0.6666666666666666 73.87862045841155 27.62 31.266666666666666
81 1 4 0 74.97558596987184 30.0 30.633333333333333
82 1 5 0.6666666666666666 74.97558596987184 32.38 30.633333333333333
83 1 6 0 72.78165494695126 30.0 36.14
84 1 1 0 76.07255148133214 30.0 30.0
85 1 2 0 77.16951699279242 30.0 30.633333333333333
86 1 3 -0.6666666666666666 77.16951699279242 32.38 30.633333333333333
87 1 4 0 78.26648250425272 30.0 31.266666666666666
88 1 5 0.6666666666666666 78.26648250425272 27.62 31.266666666666666
89 1 6 0 76.07255148133214 30.0 25.759999999999998
90 1 1 0 79.363448015713 30.0 31.9
91 1 2 0 80.46041352717329 30.0 31.266666666666666
92 1 3 -0.6666666666666666 80.46041352717329 27.62 31.266666666666666
93 1 4 0 81.55737903863358 30.0 30.633333333333333
94 1 5 0.6666666666666666 81.55737903863358 32.38 30.633333333333333
95 1 6 0 79.363448015713 30.0 36.14
96 1 1 0 82.65434455009387 30.0 30.0
97 1 2 0 83.75131006155415 30.0 30.633333333333333
98 1 3 -0.6666666666666666 83.75131006155415 32.38 30.633333333333333
99 1 4 0 84.84827557301445 30.0 31.266666666666666
100 1 5 0.6666666666666666 84.84827557301445 27.62 31.266666666666666
101 1 6 0 82.65434455009387 30.0 25.759999999999998
102 1 1 0 85.94524108447473 30.0 31.9
103 1 2 0 87.04220659593501 30.0 31.266666666666666
104 1 3 -0.6666666666666666 87.04220659593501 27.62 31.266666666666666
105 1 4 0 88.13917210739531 30.0 30.633333333333333
106 1 5 0.6666666666666666 88.13917210739531 32.38 30.633333333333333
107 1 6 0 85.94524108447473 30.0 36.14
108 1 1 0 89.2361376188556 30.0 30.0
109 1 2 0 90.33310313031588 30.0 30.633333333333333
110 1 3 -0.6666666666666666 90.33310313031588 32.38 30.633333333333333
111 1 4 0 91.43006864177617 30.0 31.266666666666666
112 1 5 0.6666666666666666 91.43006864177617 27.62 31.266666666666666
113 1 6 0 89.2361376188556 30.0 25.759999999999998
114 1 1 0 92.52703415323647 30.0 31.9
115 2 1 0 30.0 34.76 30.0
116 2 2 0 31.09696551146029 34.76 30.633333333333333
117 2 3 -0.6666666666666666 31.09696551146029 37.14 30.633333333333333
118 2 4 0 32.19393102292058 34.76 31.266666666666666
119 2 5 0.6666666666666666 32.19393102292058 32.379999999999995 31.266666666666666
120 2 1 0 33.29089653438086 34.76 31.9
121 2 2 0 34.38786204584115 34.76 31.266666666666666
122 2 3 -0.6666666666666666 34.38786204584115 32.379999999999995 31.266666666666666
123 2 4 0 35.48482755730144 34.76 30.633333333333333
124 2 5 0.6666666666666666 35.48482755730144 37.14 30.633333333333333
125 2 6 0 33.29089653438086 34.76 36.14
126 2 1 0 36.58179306876173 34.76 30.0
127 2 2 0 37.67875858022202 34.76 30.633333333333333
128 2 3 -0.6666666666666666 37.67875858022202 37.14 30.633333333333333
129 2 4 0 38.775724091682314 34.76 31.266666666666666
130 2 5 0.6666666666666666 38.775724091682314 32.379999999999995 31.266666666666666
131 2 6 0 36.58179306876173 34.76 25.759999999999998
132 2 1 0 39.872689603142604 34.76 31.9
133 2 2 0 40.969655114602894 34.76 31.266666666666666
134 2 3 -0.6666666666666666 40.969655114602894 32.379999999999995 31.266666666666666
135 2 4 0 42.066620626063184 34.76 30.633333333333333
136 2 5 0.6666666666666666 42.066620626063184 37.14 30.633333333333333
137 2 6 0 39.872689603142604 34.76 36.14
138 2 1 0 43.16358613752347 34.76 30.0
139 2 2 0 44.26055164898376 34.76 30.633333333333333
140 2 3 -0.6666666666666666 44.26055164898376 37.14 30.633333333333333
141 2 4 0 45.35751716044405 34.76 31.266666666666666
142 2 5 0.6666666666666666 45.35751716044405 32.379999999999995 31.266666666666666
143 2 6 0 43.16358613752347 34.76 25.759999999999998
144 2 1 0 46.45448267190433 34.76 31.9
145 2 2 0 47.55144818336462 34.76 31.266666666666666
146 2 3 -0.6666666666666666 47.55144818336462 32.379999999999995 31.266666666666666
147 2 4 0 48.64841369482491 34.76 30.633333333333333
148 2 5 0.6666666666666666 48.64841369482491 37.14 30.633333333333333
149 2 6 0 46.45448267190433 34.76 36.14
150 2 1 0 49.7453792062852 34.76 30.0
151 2 2 0 50.84234471774549 34.76 30.633333333333333
152 2 3 -0.6666666666666666 50.84234471774549 37.14 30.633333333333333
153 2 4 0 51.93931022920578 34.76 31.266666666666666
154 2 5 0.6666666666666666 51.93931022920578 32.379999999999995 31.266666666666666
155 2 6 0 49.7453792062852 34.76 25.759999999999998
156 2 1 0 53.03627574066607 34.76 31.9
157 2 2 0 54.13324125212636 34.76 31.266666666666666
158 2 3 -0.6666666666666666 54.13324125212636 32.379999999999995 31.266666666666666
159 2 4 0 55.23020676358665 34.76 30.633333333333333
160 2 5 0.6666666666666666 55.23020676358665 37.14 30.633333333333333
161 2 6 0 53.03627574066607 34.76 36.14
162 2 1 0 56.327172275046934 34.76 30.0
163 2 2 0 57.424137786507224 34.76 30.633333333333333
164 2 3 -0.6666666666666666 57.424137786507224 37.14 30.633333333333333
165 2 4 0 58.521103297967514 34.76 31.266666666666666
166 2 5 0.6666666666666666 58.521103297967514 32.379999999999995 31.266666666666666
167 2 6 0 56.327172275046934 34.76 25.759999999999998
168 2 1 0 59.6180688094278 34.76 31.9
169 2 2 0 60.71503432088809 34.76 31.266666666666666
170 2 3 -0.6666666666666666 60.71503432088809 32.379999999999995 31.266666666666666
171 2 4 0 61.81199983234838 34.76 30.633333333333333
172 2 5 0.6666666666666666 61.81199983234838 37.14 30.633333333333333
173 2 6 0 59.6180688094278 34.76 36.14
174 2 1 0 62.90896534380867 34.76 30.0
175 2 2 0 64.00593085526896 34.76 30.633333333333333
176 2 3 -0.6666666666666666 64.00593085526896 37.14 30.633333333333333
177 2 4 0 65.10289636672924 34.76 31.266666666666666
178 2 5 0.6666666666666666 65.10289636672924 32.379999999999995 31.266666666666666
179 2 6 0 62.90896534380867 34.76 25.759999999999998
180 2 1 0 66.19986187818954 34.76 31.9
181 2 2 0 67.29682738964982 34.76 31.266666666666666
182 2 3 -0.6666666666666666 67.29682738964982 32.379999999999995 31.266666666666666
183 2 4 0 68.39379290111012 34.76 30.633333333333333
184 2 5 0.6666666666666666 68.39379290111012 37.14 30.633333333333333
185 2 6 0 66.19986187818954 34.76 36.14
186 2 1 0 69.4907584125704 34.76 30.0
187 2 2 0 70.58772392403068 34.76 30.633333333333333
188 2 3 -0.6666666666666666 70.58772392403068 37.14 30.633333333333333
189 2 4 0 71.68468943549098 34.76 31.266666666666666
190 2 5 0.6666666666666666 71.68468943549098 32.379999999999995 31.266666666666666
191 2 6 0 69.4907584125704 34.76 25.759999999999998
192 2 1 0 72.78165494695126 34.76 31.9
193 2 2 0 73.87862045841155 34.76 31.266666666666666
194 2 3 -0.6666666666666666 73.87862045841155 32.379999999999995 31.266666666666666
195 2 4 0 74.97558596987184 34.76 30.633333333333333
196 2 5 0.6666666666666666 74.97558596987184 37.14 30.633333333333333
197 2 6 0 72.78165494695126 34.76 36.14
198 2 1 0 76.07255148133214 34.76 30.0
199 2 2 0 77.16951699279242 34.76 30.633333333333333
200 2 3 -0.6666666666666666 77.16951699279242 37.14 30.633333333333333
201 2 4 0 78.26648250425272 34.76 31.266666666666666
202 2 5 0.6666666666666666 78.26648250425272 32.379999999999995 31.266666666666666
203 2 6 0 76.07255148133214 34.76 25.759999999999998
204 2 1 0 79.363448015713 34.76 31.9
205 2 2 0 80.46041352717329 34.76 31.266666666666666
206 2 3 -0.6666666666666666 80.46041352717329 32.379999999999995 31.266666666666666
207 2 4 0 81.55737903863358 34.76 30.633333333333333
208 2 5 0.6666666666666666 81.55737903863358 37.14 30.633333333333333
209 2 6 0 79.363448015713 34.76 36.14
210 2 1 0 82.65434455009387 34.76 30.0
211 2 2 0 83.75131006155415 34.76 30.633333333333333
212 2 3 -0.6666666666666666 83.75131006155415 37.14 30.633333333333333
213 2 4 0 84.84827557301445 34.76 31.266666666666666
214 2 5 0.6666666666666666 84.84827557301445 32.379999999999995 31.266666666666666
215 2 6 0 82.65434455009387 34.76 25.759999999999998
216 2 1 0 85.94524108447473 34.76 31.9
217 2 2 0 87.04220659593501 34.76 31.266666666666666
218 2 3 -0.6666666666666666 87.04220659593501 32.379999999999995 31.266666666666666
219 2 4 0 88.13917210739531 34.76 30.633333333333333
220 2 5 0.6666666666666666 88.13917210739531 37.14 30.633333333333333
221 2 6 0 85.94524108447473 34.76 36.14
222 2 1 0 89.2361376188556 34.76 30.0
223 2 2 0 90.33310313031588 34.76 30.633333333333333
224 2 3 -0.6666666666666666 90.33310313031588 37.14 30.633333333333333
225 2 4 0 91.43006864177617 34.76 31.266666666666666
226 2 5 0.6666666666666666 91.43006864177617 32.379999999999995 31.266666666666666
227 2 6 0 89.2361376188556 34.76 25.759999999999998
228 2 1 0 92.52703415323647 34.76 31.9
229 3 1 0 30.0 39.519999999999996 30.0
230 3 2 0 31.09696551146029 39.519999999999996 30.633333333333333
231 3 3 -0.6666666666666666 31.09696551146029 41.9 30.633333333333333
232 3 4 0 32.19393102292058 39.519999999999996 31.266666666666666
233 3 5 0.6666666666666666 32.19393102292058 37.13999999999999 31.266666666666666
234 3 1 0 33.29089653438086 39.519999999999996 31.9
235 3 2 0 34.38786204584115 39.519999999999996 31.266666666666666
236 3 3 -0.6666666666666666 34.38786204584115 37.13999999999999 31.266666666666666
237 3 4 0 35.48482755730144 39.519999999999996 30.633333333333333
238 3 5 0.6666666666666666 35.48482755730144 41.9 30.633333333333333
239 3 6 0 33.29089653438086 39.519999999999996 36.14
240 3 1 0 36.58179306876173 39.519999999999996 30.0
241 3 2 0 37.67875858022202 39.519999999999996 30.633333333333333
242 3 3 -0.6666666666666666 37.67875858022202 41.9 30.633333333333333
243 3 4 0 38.775724091682314 39.519999999999996 31.266666666666666
244 3 5 0.6666666666666666 38.775724091682314 37.13999999999999 31.266666666666666
245 3 6 0 36.58179306876173 39.519999999999996 25.759999999999998
246 3 1 0 39.872689603142604 39.519999999999996 31.9
247 3 2 0 40.969655114602894 39.519999999999996 31.266666666666666
248 3 3 -0.6666666666666666 40.969655114602894 37.13999999999999 31.266666666666666
249 3 4 0 42.066620626063184 39.519999999999996 30.633333333333333
250 3 5 0.6666666666666666 42.066620626063184 41.9 30.633333333333333
251 3 6 0 39.872689603142604 39.519999999999996 36.14
252 3 1 0 43.16358613752347 39.519999999999996 30.0
253 3 2 0 44.26055164898376 39.519999999999996 30.633333333333333
254 3 3 -0.6666666666666666 44.26055164898376 41.9 30.633333333333333
255 3 4 0 45.35751716044405 39.519999999999996 31.266666666666666
256 3 5 0.6666666666666666 45.35751716044405 37.13999999999999 31.266666666666666
257 3 6 0 43.16358613752347 39.519999999999996 25.759999999999998
258 3 1 0 46.45448267190433 39.519999999999996 31.9
259 3 2 0 47.55144818336462 39.519999999999996 31.266666666666666
260 3 3 -0.6666666666666666 47.55144818336462 37.13999999999999 31.266666666666666
261 3 4 0 48.64841369482491 39.519999999999996 30.633333333333333
262 3 5 0.6666666666666666 48.64841369482491 41.9 30.633333333333333
263 3 6 0 46.45448267190433 39.519999999999996 36.14
264 3 1 0 49.7453792062852 39.519999999999996 30.0
265 3 2 0 50.84234471774549 39.519999999999996 30.633333333333333
266 3 3 -0.6666666666666666 50.84234471774549 41.9 30.633333333333333
267 3 4 0 51.93931022920578 39.519999999999996 31.266666666666666
268 3 5 0.6666666666666666 51.93931022920578 37.13999999999999 31.266666666666666
269 3 6 0 49.7453792062852 39.519999999999996 25.759999999999998
270 3 1 0 53.03627574066607 39.519999999999996 31.9
271 3 2 0 54.13324125212636 39.519999999999996 31.266666666666666
272 3 3 -0.6666666666666666 54.13324125212636 37.13999999999999 31.266666666666666
273 3 4 0 55.23020676358665 39.519999999999996 30.633333333333333
274 3 5 0.6666666666666666 55.23020676358665 41.9 30.633333333333333
275 3 6 0 53.03627574066607 39.519999999999996 36.14
276 3 1 0 56.327172275046934 39.519999999999996 30.0
277 3 2 0 57.424137786507224 39.519999999999996 30.633333333333333
278 3 3 -0.6666666666666666 57.424137786507224 41.9 30.633333333333333
279 3 4 0 58.521103297967514 39.519999999999996 31.266666666666666
280 3 5 0.6666666666666666 58.521103297967514 37.13999999999999 31.266666666666666
281 3 6 0 56.327172275046934 39.519999999999996 25.759999999999998
282 3 1 0 59.6180688094278 39.519999999999996 31.9
283 3 2 0 60.71503432088809 39.519999999999996 31.266666666666666
284 3 3 -0.6666666666666666 60.71503432088809 37.13999999999999 31.266666666666666
285 3 4 0 61.81199983234838 39.519999999999996 30.633333333333333
286 3 5 0.6666666666666666 61.81199983234838 41.9 30.633333333333333
287 3 6 0 59.6180688094278 39.519999999999996 36.14
288 3 1 0 62.90896534380867 39.519999999999996 30.0
289 3 2 0 64.00593085526896 39.519999999999996 30.633333333333333
290 3 3 -0.6666666666666666 64.00593085526896 41.9 30.633333333333333
291 3 4 0 65.10289636672924 39.519999999999996 31.266666666666666
292 3 5 0.6666666666666666 65.10289636672924 37.13999999999999 31.266666666666666
293 3 6 0 62.90896534380867 39.519999999999996 25.759999999999998
294 3 1 0 66.19986187818954 39.519999999999996 31.9
295 3 2 0 67.29682738964982 39.519999999999996 31.266666666666666
296 3 3 -0.6666666666666666 67.29682738964982 37.13999999999999 31.266666666666666
297 3 4 0 68.39379290111012 39.519999999999996 30.633333333333333
298 3 5 0.6666666666666666 68.39379290111012 41.9 30.633333333333333
299 3 6 0 66.19986187818954 39.519999999999996 36.14
300 3 1 0 69.4907584125704 39.519999999999996 30.0
301 3 2 0 70.58772392403068 39.519999999999996 30.633333333333333
302 3 3 -0.6666666666666666 70.58772392403068 41.9 30.633333333333333
303 3 4 0 71.68468943549098 39.519999999999996 31.266666666666666
304 3 5 0.6666666666666666 71.68468943549098 37.13999999999999 31.266666666666666
305 3 6 0 69.4907584125704 39.519999999999996 25.759999999999998
306 3 1 0 72.78165494695126 39.519999999999996 31.9
307 3 2 0 73.87862045841155 39.519999999999996 31.266666666666666
308 3 3 -0.6666666666666666 73.87862045841155 37.13999999999999 31.266666666666666
309 3 4 0 74.97558596987184 39.519999999999996 30.633333333333333
310 3 5 0.6666666666666666 74.97558596987184 41.9 30.633333333333333
311 3 6 0 72.78165494695126 39.519999999999996 36.14
312 3 1 0 76.07255148133214 39.519999999999996 30.0
313 3 2 0 77.16951699279242 39.519999999999996 30.633333333333333
314 3 3 -0.6666666666666666 77.16951699279242 41.9 30.633333333333333
315 3 4 0 78.26648250425272 39.519999999999996 31.266666666666666
316 3 5 0.6666666666666666 78.26648250425272 37.13999999999999 31.266666666666666
317 3 6 0 76.07255148133214 39.519999999999996 25.759999999999998
318 3 1 0 79.363448015713 39.519999999999996 31.9
319 3 2 0 80.46041352717329 39.519999999999996 31.266666666666666
320 3 3 -0.6666666666666666 80.46041352717329 37.13999999999999 31.266666666666666
321 3 4 0 81.55737903863358 39.519999999999996 30.633333333333333
322 3 5 0.6666666666666666 81.55737903863358 41.9 30.633333333333333
323 3 6 0 79.363448015713 39.519999999999996 36.14
324 3 1 0 82.65434455009387 39.519999999999996 30.0
325 3 2 0 83.75131006155415 39.519999999999996 30.633333333333333
326 3 3 -0.6666666666666666 83.75131006155415 41.9 30.633333333333333
327 3 4 0 84.84827557301445 39.519999999999996 31.266666666666666
328 3 5 0.6666666666666666 84.84827557301445 37.13999999999999 31.266666666666666
329 3 6 0 82.65434455009387 39.519999999999996 25.759999999999998
330 3 1 0 85.94524108447473 39.519999999999996 31.9
331 3 2 0 87.04220659593501 39.519999999999996 31.266666666666666
332 3 3 -0.6666666666666666 87.04220659593501 37.13999999999999 31.266666666666666
333 3 4 0 88.13917210739531 39.519999999999996 30.633333333333333
334 3 5 0.6666666666666666 88.13917210739531 41.9 30.633333333333333
335 3 6 0 85.94524108447473 39.519999999999996 36.14
336 3 1 0 89.2361376188556 39.519999999999996 30.0
337 3 2 0 90.33310313031588 39.519999999999996 30.633333333333333
338 3 3 -0.6666666666666666 90.33310313031588 41.9 30.633333333333333
339 3 4 0 91.43006864177617 39.519999999999996 31.266666666666666
340 3 5 0.6666666666666666 91.43006864177617 37.13999999999999 31.266666666666666
341 3 6 0 89.2361376188556 39.519999999999996 25.759999999999998
342 3 1 0 92.52703415323647 39.519999999999996 31.9
343 4 1 0 30.0 44.28 30.0
344 4 2 0 31.09696551146029 44.28 30.633333333333333
345 4 3 -0.6666666666666666 31.09696551146029 46.660000000000004 30.633333333333333
346 4 4 0 32.19393102292058 44.28 31.266666666666666
347 4 5 0.6666666666666666 32.19393102292058 41.9 31.266666666666666
348 4 1 0 33.29089653438086 44.28 31.9
349 4 2 0 34.38786204584115 44.28 31.266666666666666
350 4 3 -0.6666666666666666 34.38786204584115 41.9 31.266666666666666
351 4 4 0 35.48482755730144 44.28 30.633333333333333
352 4 5 0.6666666666666666 35.48482755730144 46.660000000000004 30.633333333333333
353 4 6 0 33.29089653438086 44.28 36.14
354 4 1 0 36.58179306876173 44.28 30.0
355 4 2 0 37.67875858022202 44.28 30.633333333333333
356 4 3 -0.6666666666666666 37.67875858022202 46.660000000000004 30.633333333333333
357 4 4 0 38.775724091682314 44.28 31.266666666666666
358 4 5 0.6666666666666666 38.775724091682314 41.9 31.266666666666666
359 4 6 0 36.58179306876173 44.28 25.759999999999998
360 4 1 0 39.872689603142604 44.28 31.9
361 4 2 0 40.969655114602894 44.28 31.266666666666666
362 4 3 -0.6666666666666666 40.969655114602894 41.9 31.266666666666666
363 4 4 0 42.066620626063184 44.28 30.633333333333333
364 4 5 0.6666666666666666 42.066620626063184 46.660000000000004 30.633333333333333
365 4 6 0 39.872689603142604 44.28 36.14
366 4 1 0 43.16358613752347 44.28 30.0
367 4 2 0 44.26055164898376 44.28 30.633333333333333
368 4 3 -0.6666666666666666 44.26055164898376 46.660000000000004 30.633333333333333
369 4 4 0 45.35751716044405 44.28 31.266666666666666
370 4 5 0.6666666666666666 45.35751716044405 41.9 31.266666666666666
371 4 6 0 43.16358613752347 44.28 25.759999999999998
372 4 1 0 46.45448267190433 44.28 31.9
373 4 2 0 47.55144818336462 44.28 31.266666666666666
374 4 3 -0.6666666666666666 47.55144818336462 41.9 31.266666666666666
375 4 4 0 48.64841369482491 44.28 30.633333333333333
376 4 5 0.6666666666666666 48.64841369482491 46.660000000000004 30.633333333333333
377 4 6 0 46.45448267190433 44.28 36.14
378 4 1 0 49.7453792062852 44.28 30.0
379 4 2 0 50.84234471774549 44.28 30.633333333333333
380 4 3 -0.6666666666666666 50.84234471774549 46.660000000000004 30.633333333333333
381 4 4 0 51.93931022920578 44.28 31.266666666666666
382 4 5 0.6666666666666666 51.93931022920578 41.9 31.266666666666666
383 4 6 0 49.7453792062852 44.28 25.759999999999998
384 4 1 0 53.03627574066607 44.28 31.9
385 4 2 0 54.13324125212636 44.28 31.266666666666666
386 4 3 -0.6666666666666666 54.13324125212636 41.9 31.266666666666666
387 4 4 0 55.23020676358665 44.28 30.633333333333333
388 4 5 0.6666666666666666 55.23020676358665 46.660000000000004 30.633333333333333
389 4 6 0 53.03627574066607 44.28 36.14
390 4 1 0 56.327172275046934 44.28 30.0
391 4 2 0 57.424137786507224 44.28 30.633333333333333
392 4 3 -0.6666666666666666 57.424137786507224 46.660000000000004 30.633333333333333
393 4 4 0 58.521103297967514 44.28 31.266666666666666
394 4 5 0.6666666666666666 58.521103297967514 41.9 31.266666666666666
395 4 6 0 56.327172275046934 44.28 25.759999999999998
396 4 1 0 59.6180688094278 44.28 31.9
397 4 2 0 60.71503432088809 44.28 31.266666666666666
398 4 3 -0.6666666666666666 60.71503432088809 41.9 31.266666666666666
399 4 4 0 61.81199983234838 44.28 30.633333333333333
400 4 5 0.6666666666666666 61.81199983234838 46.660000000000004 30.633333333333333
401 4 6 0 59.6180688094278 44.28 36.14
402 4 1 0 62.90896534380867 44.28 30.0
403 4 2 0 64.00593085526896 44.28 30.633333333333333
404 4 3 -0.6666666666666666 64.00593085526896 46.660000000000004 30.633333333333333
405 4 4 0 65.10289636672924 44.28 31.266666666666666
406 4 5 0.6666666666666666 65.10289636672924 41.9 31.266666666666666
407 4 6 0 62.90896534380867 44.28 25.759999999999998
408 4 1 0 66.19986187818954 44.28 31.9
409 4 2 0 67.29682738964982 44.28 31.266666666666666
410 4 3 -0.6666666666666666 67.29682738964982 41.9 31.266666666666666
411 4 4 0 68.39379290111012 44.28 30.633333333333333
412 4 5 0.6666666666666666 68.39379290111012 46.660000000000004 30.633333333333333
413 4 6 0 66.19986187818954 44.28 36.14
414 4 1 0 69.4907584125704 44.28 30.0
415 4 2 0 70.58772392403068 44.28 30.633333333333333
416 4 3 -0.6666666666666666 70.58772392403068 46.660000000000004 30.633333333333333
417 4 4 0 71.68468943549098 44.28 31.266666666666666
418 4 5 0.6666666666666666 71.68468943549098 41.9 31.266666666666666
419 4 6 0 69.4907584125704 44.28 25.759999999999998
420 4 1 0 72.78165494695126 44.28 31.9
421 4 2 0 73.87862045841155 44.28 31.266666666666666
422 4 3 -0.6666666666666666 73.87862045841155 41.9 31.266666666666666
423 4 4 0 74.97558596987184 44.28 30.633333333333333
424 4 5 0.6666666666666666 74.97558596987184 46.660000000000004 30.633333333333333
425 4 6 0 72.78165494695126 44.28 36.14
426 4 1 0 76.07255148133214 44.28 30.0
427 4 2 0 77.16951699279242 44.28 30.633333333333333
428 4 3 -0.6666666666666666 77.16951699279242 46.660000000000004 30.633333333333333
429 4 4 0 78.26648250425272 44.28 31.266666666666666
430 4 5 0.6666666666666666 78.26648250425272 41.9 31.266666666666666
431 4 6 0 76.07255148133214 44.28 25.759999999999998
432 4 1 0 79.363448015713 44.28 31.9
433 4 2 0 80.46041352717329 44.28 31.266666666666666
434 4 3 -0.6666666666666666 80.46041352717329 41.9 31.266666666666666
435 4 4 0 81.55737903863358 44.28 30.633333333333333
436 4 5 0.6666666666666666 81.55737903863358 46.660000000000004 30.633333333333333
437 4 6 0 79.363448015713 44.28 36.14
438 4 1 0 82.65434455009387 44.28 30.0
439 4 2 0 83.75131006155415 44.28 30.633333333333333
440 4 3 -0.6666666666666666 83.75131006155415 46.660000000000004 30.633333333333333
441 4 4 0 84.84827557301445 44.28 31.266666666666666
442 4 5 0.6666666666666666 84.84827557301445 41.9 31.266666666666666
443 4 6 0 82.65434455009387 44.28 25.759999999999998
444 4 1 0 85.94524108447473 44.28 31.9
445 4 2 0 87.04220659593501 44.28 31.266666666666666
446 4 3 -0.6666666666666666 87.04220659593501 41.9 31.266666666666666
447 4 4 0 88.13917210739531 44.28 30.633333333333333
448 4 5 0.6666666666666666 88.13917210739531 46.660000000000004 30.633333333333333
449 4 6 0 85.94524108447473 44.28 36.14
450 4 1 0 89.2361376188556 44.28 30.0
451 4 2 0 90.33310313031588 44.28 30.633333333333333
452 4 3 -0.6666666666666666 90.33310313031588 46.660000000000004 30.633333333333333
453 4 4 0 91.43006864177617 44.28 31.266666666666666
454 4 5 0.6666666666666666 91.43006864177617 41.9 31.266666666666666
455 4 6 0 89.2361376188556 44.28 25.759999999999998
456 4 1 0 92.52703415323647 44.28 31.9
457 5 1 0 30.0 49.04 30.0
458 5 2 0 31.09696551146029 49.04 30.633333333333333
459 5 3 -0.6666666666666666 31.09696551146029 51.42 30.633333333333333
460 5 4 0 32.19393102292058 49.04 31.266666666666666
461 5 5 0.6666666666666666 32.19393102292058 46.66 31.266666666666666
462 5 1 0 33.29089653438086 49.04 31.9
463 5 2 0 34.38786204584115 49.04 31.266666666666666
464 5 3 -0.6666666666666666 34.38786204584115 46.66 31.266666666666666
465 5 4 0 35.48482755730144 49.04 30.633333333333333
466 5 5 0.6666666666666666 35.48482755730144 51.42 30.633333333333333
467 5 6 0 33.29089653438086 49.04 36.14
468 5 1 0 36.58179306876173 49.04 30.0
469 5 2 0 37.67875858022202 49.04 30.633333333333333
470 5 3 -0.6666666666666666 37.67875858022202 51.42 30.633333333333333
471 5 4 0 38.775724091682314 49.04 31.266666666666666
472 5 5 0.6666666666666666 38.775724091682314 46.66 31.266666666666666
473 5 6 0 36.58179306876173 49.04 25.759999999999998
474 5 1 0 39.872689603142604 49.04 31.9
475 5 2 0 40.969655114602894 49.04 31.266666666666666
476 5 3 -0.6666666666666666 40.969655114602894 46.66 31.266666666666666
477 5 4 0 42.066620626063184 49.04 30.633333333333333
478 5 5 0.6666666666666666 42.066620626063184 51.42 30.633333333333333
479 5 6 0 39.872689603142604 49.04 36.14
480 5 1 0 43.16358613752347 49.04 30.0
481 5 2 0 44.26055164898376 49.04 30.633333333333333
482 5 3 -0.6666666666666666 44.26055164898376 51.42 30.633333333333333
483 5 4 0 45.35751716044405 49.04 31.266666666666666
484 5 5 0.6666666666666666 45.35751716044405 46.66 31.266666666666666
485 5 6 0 43.16358613752347 49.04 25.759999999999998
486 5 1 0 46.45448267190433 49.04 31.9
487 5 2 0 47.55144818336462 49.04 31.266666666666666
488 5 3 -0.6666666666666666 47.55144818336462 46.66 31.266666666666666
489 5 4 0 48.64841369482491 49.04 30.633333333333333
490 5 5 0.6666666666666666 48.64841369482491 51.42 30.633333333333333
491 5 6 0 46.45448267190433 49.04 36.14
492 5 1 0 49.7453792062852 49.04 30.0
493 5 2 0 50.84234471774549 49.04 30.633333333333333
494 5 3 -0.6666666666666666 50.84234471774549 51.42 30.633333333333333
495 5 4 0 51.93931022920578 49.04 31.266666666666666
496 5 5 0.6666666666666666 51.93931022920578 46.66 31.266666666666666
497 5 6 0 49.7453792062852 49.04 25.759999999999998
498 5 1 0 53.03627574066607 49.04 31.9
499 5 2 0 54.13324125212636 49.04 31.266666666666666
500 5 3 -0.6666666666666666 54.13324125212636 46.66 31.266666666666666
501 5 4 0 55.23020676358665 49.04 30.633333333333333
502 5 5 0.6666666666666666 55.23020676358665 51.42 30.633333333333333
503 5 6 0 53.03627574066607 49.04 36.14
504 5 1 0 56.327172275046934 49.04 30.0
505 5 2 0 57.424137786507224 49.04 30.633333333333333
506 5 3 -0.6666666666666666 57.424137786507224 51.42 30.633333333333333
507 5 4 0 58.521103297967514 49.04 31.266666666666666
508 5 5 0.6666666666666666 58.521103297967514 46.66 31.266666666666666
509 5 6 0 56.327172275046934 49.04 25.759999999999998
510 5 1 0 59.6180688094278 49.04 31.9
511 5 2 0 60.71503432088809 49.04 31.266666666666666
512 5 3 -0.6666666666666666 60.71503432088809 46.66 31.266666666666666
513 5 4 0 61.81199983234838 49.04 30.633333333333333
514 5 5 0.6666666666666666 61.81199983234838 51.42 30.633333333333333
515 5 6 0 59.6180688094278 49.04 36.14
516 5 1 0 62.90896534380867 49.04 30.0
517 5 2 0 64.00593085526896 49.04 30.633333333333333
518 5 3 -0.6666666666666666 64.00593085526896 51.42 30.633333333333333
519 5 4 0 65.10289636672924 49.04 31.266666666666666
520 5 5 0.6666666666666666 65.10289636672924 46.66 31.266666666666666
521 5 6 0 62.90896534380867 49.04 25.759999999999998
522 5 1 0 66.19986187818954 49.04 31.9
523 5 2 0 67.29682738964982 49.04 31.266666666666666
524 5 3 -0.6666666666666666 67.29682738964982 46.66 31.266666666666666
525 5 4 0 68.39379290111012 49.04 30.633333333333333
526 5 5 0.6666666666666666 68.39379290111012 51.42 30.633333333333333
527 5 6 0 66.19986187818954 49.04 36.14
528 5 1 0 69.4907584125704 49.04 30.0
529 5 2 0 70.58772392403068 49.04 30.633333333333333
530 5 3 -0.6666666666666666 70.58772392403068 51.42 30.633333333333333
531 5 4 0 71.68468943549098 49.04 31.266666666666666
532 5 5 0.6666666666666666 71.68468943549098 46.66 31.266666666666666
533 5 6 0 69.4907584125704 49.04 25.759999999999998
534 5 1 0 72.78165494695126 49.04 31.9
535 5 2 0 73.87862045841155 49.04 31.266666666666666
536 5 3 -0.6666666666666666 73.87862045841155 46.66 31.266666666666666
537 5 4 0 74.97558596987184 49.04 30.633333333333333
538 5 5 0.6666666666666666 74.97558596987184 51.42 30.633333333333333
539 5 6 0 72.78165494695126 49.04 36.14
540 5 1 0 76.07255148133214 49.04 30.0
541 5 2 0 77.16951699279242 49.04 30.633333333333333
542 5 3 -0.6666666666666666 77.16951699279242 51.42 30.633333333333333
543 5 4 0 78.26648250425272 49.04 31.266666666666666
544 5 5 0.6666666666666666 78.26648250425272 46.66 31.266666666666666
545 5 6 0 76.07255148133214 49.04 25.759999999999998
546 5 1 0 79.363448015713 49.04 31.9
547 5 2 0 80.46041352717329 49.04 31.266666666666666
548 5 3 -0.6666666666666666 80.46041352717329 46.66 31.266666666666666
549 5 4 0 81.55737903863358 49.04 30.633333333333333
550 5 5 0.6666666666666666 81.55737903863358 51.42 30.633333333333333
551 5 6 0 79.363448015713 49.04 36.14
552 5 1 0 82.65434455009387 49.04 30.0
553 5 2 0 83.75131006155415 49.04 30.633333333333333
554 5 3 -0.6666666666666666 83.75131006155415 51.42 30.633333333333333
555 5 4 0 84.84827557301445 49.04 31.266666666666666
556 5 5 0.6666666666666666 84.84827557301445 46.66 31.266666666666666
557 5 6 0 82.65434455009387 49.04 25.759999999999998
558 5 1 0 85.94524108447473 49.04 31.9
559 5 2 0 87.04220659593501 49.04 31.266666666666666
560 5 3 -0.6666666666666666 87.04220659593501 46.66 31.266666666666666
561 5 4 0 88.13917210739531 49.04 30.633333333333333
562 5 5 0.6666666666666666 88.13917210739531 51.42 30.633333333333333
563 5 6 0 85.94524108447473 49.04 36.14
564 5 1 0 89.2361376188556 49.04 30.0
565 5 2 0 90.33310313031588 49.04 30.633333333333333
566 5 3 -0.6666666666666666 90.33310313031588 51.42 30.633333333333333
567 5 4 0 91.43006864177617 49.04 31.266666666666666
568 5 5 0.6666666666666666 91.43006864177617 46.66 31.266666666666666
569 5 6 0 89.2361376188556 49.04 25.759999999999998
570 5 1 0 92.52703415323647 49.04 31.9
571 6 1 0 30.0 53.8 30.0
572 6 2 0 31.09696551146029 53.8 30.633333333333333
573 6 3 -0.6666666666666666 31.09696551146029 56.18 30.633333333333333
574 6 4 0 32.19393102292058 53.8 31.266666666666666
575 6 5 0.6666666666666666 32.19393102292058 51.419999999999995 31.266666666666666
576 6 1 0 33.29089653438086 53.8 31.9
577 6 2 0 34.38786204584115 53.8 31.266666666666666
578 6 3 -0.6666666666666666 34.38786204584115 51.419999999999995 31.266666666666666
579 6 4 0 35.48482755730144 53.8 30.633333333333333
580 6 5 0.6666666666666666 35.48482755730144 56.18 30.633333333333333
581 6 6 0 33.29089653438086 53.8 36.14
582 6 1 0 36.58179306876173 53.8 30.0
583 6 2 0 37.67875858022202 53.8 30.633333333333333
584 6 3 -0.6666666666666666 37.67875858022202 56.18 30.633333333333333
585 6 4 0 38.775724091682314 53.8 31.266666666666666
586 6 5 0.6666666666666666 38.775724091682314 51.419999999999995 31.266666666666666
587 6 6 0 36.58179306876173 53.8 25.759999999999998
588 6 1 0 39.872689603142604 53.8 31.9
589 6 2 0 40.969655114602894 53.8 31.266666666666666
590 6 3 -0.6666666666666666 40.969655114602894 51.419999999999995 31.266666666666666
591 6 4 0 42.066620626063184 53.8 30.633333333333333
592 6 5 0.6666666666666666 42.066620626063184 56.18 30.633333333333333
593 6 6 0 39.872689603142604 53.8 36.14
594 6 1 0 43.16358613752347 53.8 30.0
595 6 2 0 44.26055164898376 53.8 30.633333333333333
596 6 3 -0.6666666666666666 44.26055164898376 56.18 30.633333333333333
597 6 4 0 45.35751716044405 53.8 31.266666666666666
598 6 5 0.6666666666666666 45.35751716044405 51.419999999999995 31.266666666666666
599 6 6 0 43.16358613752347 53.8 25.759999999999998
600 6 1 0 46.45448267190433 53.8 31.9
601 6 2 0 47.55144818336462 53.8 31.266666666666666
602 6 3 -0.6666666666666666 47.55144818336462 51.419999999999995 31.266666666666666
603 6 4 0 48.64841369482491 53.8 30.633333333333333
604 6 5 0.6666666666666666 48.64841369482491 56.18 30.633333333333333
605 6 6 0 46.45448267190433 53.8 36.14
606 6 1 0 49.7453792062852 53.8 30.0
607 6 2 0 50.84234471774549 53.8 30.633333333333333
608 6 3 -0.6666666666666666 50.84234471774549 56.18 30.633333333333333
609 6 4 0 51.93931022920578 53.8 31.266666666666666
610 6 5 0.6666666666666666 51.93931022920578 51.419999999999995 31.266666666666666
611 6 6 0 49.7453792062852 53.8 25.759999999999998
612 6 1 0 53.03627574066607 53.8 31.9
613 6 2 0 54.13324125212636 53.8 31.266666666666666
614 6 3 -0.6666666666666666 54.13324125212636 51.419999999999995 31.266666666666666
615 6 4 0 55.23020676358665 53.8 30.633333333333333
616 6 5 0.6666666666666666 55.23020676358665 56.18 30.633333333333333
617 6 6 0 53.03627574066607 53.8 36.14
618 6 1 0 56.327172275046934 53.8 30.0
619 6 2 0 57.424137786507224 53.8 30.633333333333333
620 6 3 -0.6666666666666666 57.424137786507224 56.18 30.633333333333333
621 6 4 0 58.521103297967514 53.8 31.266666666666666
622 6 5 0.6666666666666666 58.521103297967514 51.419999999999995 31.266666666666666
623 6 6 0 56.327172275046934 53.8 25.759999999999998
624 6 1 0 59.6180688094278 53.8 31.9
625 6 2 0 60.71503432088809 53.8 31.266666666666666
626 6 3 -0.6666666666666666 60.71503432088809 51.419999999999995 31.266666666666666
627 6 4 0 61.81199983234838 53.8 30.633333333333333
628 6 5 0.6666666666666666 61.81199983234838 56.18 30.633333333333333
629 6 6 0 59.6180688094278 53.8 36.14
630 6 1 0 62.90896534380867 53.8 30.0
631 6 2 0 64.00593085526896 53.8 30.633333333333333
632 6 3 -0.6666666666666666 64.00593085526896 56.18 30.633333333333333
633 6 4 0 65.10289636672924 53.8 31.266666666666666
634 6 5 0.6666666666666666 65.10289636672924 51.419999999999995 31.266666666666666
635 6 6 0 62.90896534380867 53.8 25.759999999999998
636 6 1 0 66.19986187818954 53.8 31.9
637 6 2 0 67.29682738964982 53.8 31.266666666666666
638 6 3 -0.6666666666666666 67.29682738964982 51.419999999999995 31.266666666666666
639 6 4 0 68.39379290111012 53.8 30.633333333333333
640 6 5 0.6666666666666666 68.39379290111012 56.18 30.633333333333333
641 6 6 0 66.19986187818954 53.8 36.14
642 6 1 0 69.4907584125704 53.8 30.0
643 6 2 0 70.58772392403068 53.8 30.633333333333333
644 6 3 -0.6666666666666666 70.58772392403068 56.18 30.633333333333333
645 6 4 0 71.68468943549098 53.8 31.266666666666666
646 6 5 0.6666666666666666 71.68468943549098 51.419999999999995 31.266666666666666
647 6 6 0 69.4907584125704 53.8 25.759999999999998
648 6 1 0 72.78165494695126 53.8 31.9
649 6 2 0 73.87862045841155 53.8 31.266666666666666
650 6 3 -0.6666666666666666 73.87862045841155 51.419999999999995 31.266666666666666
651 6 4 0 74.97558596987184 53.8 30.633333333333333
652 6 5 0.6666666666666666 74.97558596987184 56.18 30.633333333333333
653 6 6 0 72.78165494695126 53.8 36.14
654 6 1 0 76.07255148133214 53.8 30.0
655 6 2 0 77.16951699279242 53.8 30.633333333333333
656 6 3 -0.6666666666666666 77.16951699279242 56.18 30.633333333333333
657 6 4 0 78.26648250425272 53.8 31.266666666666666
658 6 5 0.6666666666666666 78.26648250425272 51.419999999999995 31.266666666666666
659 6 6 0 76.07255148133214 53.8 25.759999999999998
660 6 1 0 79.363448015713 53.8 31.9
661 6 2 0 80.46041352717329 53.8 31.266666666666666
662 6 3 -0.6666666666666666 80.46041352717329 51.419999999999995 31.266666666666666
663 6 4 0 81.55737903863358 53.8 30.633333333333333
664 6 5 0.6666666666666666 81.55737903863358 56.18 30.633333333333333
665 6 6 0 79.363448015713 53.8 36.14
666 6 1 0 82.65434455009387 53.8 30.0
667 6 2 0 83.75131006155415 53.8 30.633333333333333
668 6 3 -0.6666666666666666 83.75131006155415 56.18 30.633333333333333
669 6 4 0 84.84827557301445 53.8 31.266666666666666
670 6 5 0.6666666666666666 84.84827557301445 51.419999999999995 31.266666666666666
671 6 6 0 82.65434455009387 53.8 25.759999999999998
672 6 1 0 85.94524108447473 53.8 31.9
673 6 2 0 87.04220659593501 53.8 31.266666666666666
674 6 3 -0.6666666666666666 87.04220659593501 51.419999999999995 31.266666666666666
675 6 4 0 88.13917210739531 53.8 30.633333333333333
676 6 5 0.6666666666666666 88.13917210739531 56.18 30.633333333333333
677 6 6 0 85.94524108447473 53.8 36.14
678 6 1 0 89.2361376188556 53.8 30.0
679 6 2 0 90.33310313031588 53.8 30.633333333333333
680 6 3 -0.6666666666666666 90.33310313031588 56.18 30.633333333333333
681 6 4 0 91.43006864177617 53.8 31.266666666666666
682 6 5 0.6666666666666666 91.43006864177617 51.419999999999995 31.266666666666666
683 6 6 0 89.2361376188556 53.8 25.759999999999998
684 6 1 0 92.52703415323647 53.8 31.9
685 7 1 0 30.0 58.56 30.0
686 7 2 0 31.09696551146029 58.56 30.633333333333333
687 7 3 -0.6666666666666666 31.09696551146029 60.940000000000005 30.633333333333333
688 7 4 0 32.19393102292058 58.56 31.266666666666666
689 7 5 0.6666666666666666 32.19393102292058 56.18 31.266666666666666
690 7 1 0 33.29089653438086 58.56 31.9
691 7 2 0 34.38786204584115 58.56 31.266666666666666
692 7 3 -0.6666666666666666 34.38786204584115 56.18 31.266666666666666
693 7 4 0 35.48482755730144 58.56 30.633333333333333
694 7 5 0.6666666666666666 35.48482755730144 60.940000000000005 30.633333333333333
695 7 6 0 33.29089653438086 58.56 36.14
696 7 1 0 36.58179306876173 58.56 30.0
697 7 2 0 37.67875858022202 58.56 30.633333333333333
698 7 3 -0.6666666666666666 37.67875858022202 60.940000000000005 30.633333333333333
699 7 4 0 38.775724091682314 58.56 31.266666666666666
700 7 5 0.6666666666666666 38.775724091682314 56.18 31.266666666666666
701 7 6 0 36.58179306876173 58.56 25.759999999999998
702 7 1 0 39.872689603142604 58.56 31.9
703 7 2 0 40.969655114602894 58.56 31.266666666666666
704 7 3 -0.6666666666666666 40.969655114602894 56.18 31.266666666666666
705 7 4 0 42.066620626063184 58.56 30.633333333333333
706 7 5 0.6666666666666666 42.066620626063184 60.940000000000005 30.633333333333333
707 7 6 0 39.872689603142604 58.56 36.14
708 7 1 0 43.16358613752347 58.56 30.0
709 7 2 0 44.26055164898376 58.56 30.633333333333333
710 7 3 -0.6666666666666666 44.26055164898376 60.940000000000005 30.633333333333333
711 7 4 0 45.35751716044405 58.56 31.266666666666666
712 7 5 0.6666666666666666 45.35751716044405 56.18 31.266666666666666
713 7 6 0 43.16358613752347 58.56 25.759999999999998
714 7 1 0 46.45448267190433 58.56 31.9
715 7 2 0 47.55144818336462 58.56 31.266666666666666
716 7 3 -0.6666666666666666 47.55144818336462 56.18 31.266666666666666
717 7 4 0 48.64841369482491 58.56 30.633333333333333
718 7 5 0.6666666666666666 48.64841369482491 60.940000000000005 30.633333333333333
719 7 6 0 46.45448267190433 58.56 36.14
720 7 1 0 49.7453792062852 58.56 30.0
721 7 2 0 50.84234471774549 58.56 30.633333333333333
722 7 3 -0.6666666666666666 50.84234471774549 60.940000000000005 30.633333333333333
723 7 4 0 51.93931022920578 58.56 31.266666666666666
724 7 5 0.6666666666666666 51.93931022920578 56.18 31.266666666666666
725 7 6 0 49.7453792062852 58.56 25.759999999999998
726 7 1 0 53.03627574066607 58.56 31.9
727 7 2 0 54.13324125212636 58.56 31.266666666666666
728 7 3 -0.6666666666666666 54.13324125212636 56.18 31.266666666666666
729 7 4 0 55.23020676358665 58.56 30.633333333333333
730 7 5 0.6666666666666666 55.23020676358665 60.940000000000005 30.633333333333333
731 7 6 0 53.03627574066607 58.56 36.14
732 7 1 0 56.327172275046934 58.56 30.0
733 7 2 0 57.424137786507224 58.56 30.633333333333333
734 7 3 -0.6666666666666666 57.424137786507224 60.940000000000005 30.633333333333333
735 7 4 0 58.521103297967514 58.56 31.266666666666666
736 7 5 0.6666666666666666 58.521103297967514 56.18 31.266666666666666
737 7 6 0 56.327172275046934 58.56 25.759999999999998
738 7 1 0 59.6180688094278 58.56 31.9
739 7 2 0 60.71503432088809 58.56 31.266666666666666
740 7 3 -0.6666666666666666 60.71503432088809 56.18 31.266666666666666
741 7 4 0 61.81199983234838 58.56 30.633333333333333
742 7 5 0.6666666666666666 61.81199983234838 60.940000000000005 30.633333333333333
743 7 6 0 59.6180688094278 58.56 36.14
744 7 1 0 62.90896534380867 58.56 30.0
745 7 2 0 64.00593085526896 58.56 30.633333333333333
746 7 3 -0.6666666666666666 64.00593085526896 60.940000000000005 30.633333333333333
747 7 4 0 65.10289636672924 58.56 31.266666666666666
748 7 5 0.6666666666666666 65.10289636672924 56.18 31.266666666666666
749 7 6 0 62.90896534380867 58.56 25.759999999999998
750 7 1 0 66.19986187818954 58.56 31.9
751 7 2 0 67.29682738964982 58.56 31.266666666666666
752 7 3 -0.6666666666666666 67.29682738964982 56.18 31.266666666666666
753 7 4 0 68.39379290111012 58.56 30.633333333333333
754 7 5 0.6666666666666666 68.39379290111012 60.940000000000005 30.633333333333333
755 7 6 0 66.19986187818954 58.56 36.14
756 7 1 0 69.4907584125704 58.56 30.0
757 7 2 0 70.58772392403068 58.56 30.633333333333333
758 7 3 -0.6666666666666666 70.58772392403068 60.940000000000005 30.633333333333333
759 7 4 0 71.68468943549098 58.56 31.266666666666666
760 7 5 0.6666666666666666 71.68468943549098 56.18 31.266666666666666
761 7 6 0 69.4907584125704 58.56 25.759999999999998
762 7 1 0 72.78165494695126 58.56 31.9
763 7 2 0 73.87862045841155 58.56 31.266666666666666
764 7 3 -0.6666666666666666 73.87862045841155 56.18 31.266666666666666
765 7 4 0 74.97558596987184 58.56 30.633333333333333
766 7 5 0.6666666666666666 74.97558596987184 60.940000000000005 30.633333333333333
767 7 6 0 72.78165494695126 58.56 36.14
768 7 1 0 76.07255148133214 58.56 30.0
769 7 2 0 77.16951699279242 58.56 30.633333333333333
770 7 3 -0.6666666666666666 77.16951699279242 60.940000000000005 30.633333333333333
771 7 4 0 78.26648250425272 58.56 31.266666666666666
772 7 5 0.6666666666666666 78.26648250425272 56.18 31.266666666666666
773 7 6 0 76.07255148133214 58.56 25.759999999999998
774 7 1 0 79.363448015713 58.56 31.9
775 7 2 0 80.46041352717329 58.56 31.266666666666666
776 7 3 -0.6666666666666666 80.46041352717329 56.18 31.266666666666666
777 7 4 0 81.55737903863358 58.56 30.633333333333333
778 7 5 0.6666666666666666 81.55737903863358 60.940000000000005 30.633333333333333
779 7 6 0 79.363448015713 58.56 36.14
780 7 1 0 82.65434455009387 58.56 30.0
781 7 2 0 83.75131006155415 58.56 30.633333333333333
782 7 3 -0.6666666666666666 83.75131006155415 60.940000000000005 30.633333333333333
783 7 4 0 84.84827557301445 58.56 31.266666666666666
784 7 5 0.6666666666666666 84.84827557301445 56.18 31.266666666666666
785 7 6 0 82.65434455009387 58.56 25.759999999999998
786 7 1 0 85.94524108447473 58.56 31.9
787 7 2 0 87.04220659593501 58.56 31.266666666666666
788 7 3 -0.6666666666666666 87.04220659593501 56.18 31.266666666666666
789 7 4 0 88.13917210739531 58.56 30.633333333333333
790 7 5 0.6666666666666666 88.13917210739531 60.940000000000005 30.633333333333333
791 7 6 0 85.94524108447473 58.56 36.14
792 7 1 0 89.2361376188556 58.56 30.0
793 7 2 0 90.33310313031588 58.56 30.633333333333333
794 7 3 -0.6666666666666666 90.33310313031588 60.940000000000005 30.633333333333333
795 7 4 0 91.43006864177617 58.56 31.266666666666666
796 7 5 0.6666666666666666 91.43006864177617 56.18 31.266666666666666
797 7 6 0 89.2361376188556 58.56 25.759999999999998
798 7 1 0 92.52703415323647 58.56 31.9
799 8 1 0 30.0 63.32 30.0
800 8 2 0 31.09696551146029 63.32 30.633333333333333
801 8 3 -0.6666666666666666 31.09696551146029 65.7 30.633333333333333
802 8 4 0 32.19393102292058 63.32 31.266666666666666
803 8 5 0.6666666666666666 32.19393102292058 60.94 31.266666666666666
804 8 1 0 33.29089653438086 63.32 31.9
805 8 2 0 34.38786204584115 63.32 31.266666666666666
806 8 3 -0.6666666666666666 34.38786204584115 60.94 31.266666666666666
807 8 4 0 35.48482755730144 63.32 30.633333333333333
808 8 5 0.6666666666666666 35.48482755730144 65.7 30.633333333333333
809 8 6 0 33.29089653438086 63.32 36.14
810 8 1 0 36.58179306876173 63.32 30.0
811 8 2 0 37.67875858022202 63.32 30.633333333333333
812 8 3 -0.6666666666666666 37.67875858022202 65.7 30.633333333333333
813 8 4 0 38.775724091682314 63.32 31.266666666666666
814 8 5 0.6666666666666666 38.775724091682314 60.94 31.266666666666666
815 8 6 0 36.58179306876173 63.32 25.759999999999998
816 8 1 0 39.872689603142604 63.32 31.9
817 8 2 0 40.969655114602894 63.32 31.266666666666666
818 8 3 -0.6666666666666666 40.969655114602894 60.94 31.266666666666666
819 8 4 0 42.066620626063184 63.32 30.633333333333333
820 8 5 0.6666666666666666 42.066620626063184 65.7 30.633333333333333
821 8 6 0 39.872689603142604 63.32 36.14
822 8 1 0 43.16358613752347 63.32 30.0
823 8 2 0 44.26055164898376 63.32 30.633333333333333
824 8 3 -0.6666666666666666 44.26055164898376 65.7 30.633333333333333
825 8 4 0 45.35751716044405 63.32 31.266666666666666
826 8 5 0.6666666666666666 45.35751716044405 60.94 31.266666666666666
827 8 6 0 43.16358613752347 63.32 25.759999999999998
828 8 1 0 46.45448267190433 63.32 31.9
829 8 2 0 47.55144818336462 63.32 31.266666666666666
830 8 3 -0.6666666666666666 47.55144818336462 60.94 31.266666666666666
831 8 4 0 48.64841369482491 63.32 30.633333333333333
832 8 5 0.6666666666666666 48.64841369482491 65.7 30.633333333333333
833 8 6 0 46.45448267190433 63.32 36.14
834 8 1 0 49.7453792062852 63.32 30.0
835 8 2 0 50.84234471774549 63.32 30.633333333333333
836 8 3 -0.6666666666666666 50.84234471774549 65.7 30.633333333333333
837 8 4 0 51.93931022920578 63.32 31.266666666666666
838 8 5 0.6666666666666666 51.93931022920578 60.94 31.266666666666666
839 8 6 0 49.7453792062852 63.32 25.759999999999998
840 8 1 0 53.03627574066607 63.32 31.9
841 8 2 0 54.13324125212636 63.32 31.266666666666666
842 8 3 -0.6666666666666666 54.13324125212636 60.94 31.266666666666666
843 8 4 0 55.23020676358665 63.32 30.633333333333333
844 8 5 0.6666666666666666 55.23020676358665 65.7 30.633333333333333
845 8 6 0 53.03627574066607 63.32 36.14
846 8 1 0 56.327172275046934 63.32 30.0
847 8 2 0 57.424137786507224 63.32 30.633333333333333
848 8 3 -0.6666666666666666 57.424137786507224 65.7 30.633333333333333
849 8 4 0 58.521103297967514 63.32 31.266666666666666
850 8 5 0.6666666666666666 58.521103297967514 60.94 31.266666666666666
851 8 6 0 56.327172275046934 63.32 25.759999999999998
852 8 1 0 59.6180688094278 63.32 31.9
853 8 2 0 60.71503432088809 63.32 31.266666666666666
854 8 3 -0.6666666666666666 60.71503432088809 60.94 31.266666666666666
855 8 4 0 61.81199983234838 63.32 30.633333333333333
856 8 5 0.6666666666666666 61.81199983234838 65.7 30.633333333333333
857 8 6 0 59.6180688094278 63.32 36.14
858 8 1 0 62.90896534380867 63.32 30.0
859 8 2 0 64.00593085526896 63.32 30.633333333333333
860 8 3 -0.6666666666666666 64.00593085526896 65.7 30.633333333333333
861 8 4 0 65.10289636672924 63.32 31.266666666666666
862 8 5 0.6666666666666666 65.10289636672924 60.94 31.266666666666666
863 8 6 0 62.90896534380867 63.32 25.759999999999998
864 8 1 0 66.19986187818954 63.32 31.9
865 8 2 0 67.29682738964982 63.32 31.266666666666666
866 8 3 -0.6666666666666666 67.29682738964982 60.94 31.266666666666666
867 8 4 0 68.39379290111012 63.32 30.633333333333333
868 8 5 0.6666666666666666 68.39379290111012 65.7 30.633333333333333
869 8 6 0 66.19986187818954 63.32 36.14
870 8 1 0 69.4907584125704 63.32 30.0
871 8 2 0 70.58772392403068 63.32 30.633333333333333
872 8 3 -0.6666666666666666 70.58772392403068 65.7 30.633333333333333
873 8 4 0 71.68468943549098 63.32 31.266666666666666
874 8 5 0.6666666666666666 71.68468943549098 60.94 31.266666666666666
875 8 6 0 69.4907584125704 63.32 25.759999999999998
876 8 1 0 72.78165494695126 63.32 31.9
877 8 2 0 73.87862045841155 63.32 31.266666666666666
878 8 3 -0.6666666666666666 73.87862045841155 60.94 31.266666666666666
879 8 4 0 74.97558596987184 63.32 30.633333333333333
880 8 5 0.6666666666666666 74.97558596987184 65.7 30.633333333333333
881 8 6 0 72.78165494695126 63.32 36.14
882 8 1 0 76.07255148133214 63.32 30.0
883 8 2 0 77.16951699279242 63.32 30.633333333333333
884 8 3 -0.6666666666666666 77.16951699279242 65.7 30.633333333333333
885 8 4 0 78.26648250425272 63.32 31.266666666666666
886 8 5 0.6666666666666666 78.26648250425272 60.94 31.266666666666666
887 8 6 0 76.07255148133214 63.32 25.759999999999998
888 8 1 0 79.363448015713 63.32 31.9
889 8 2 0 80.46041352717329 63.32 31.266666666666666
890 8 3 -0.6666666666666666 80.46041352717329 60.94 31.266666666666666
891 8 4 0 81.55737903863358 63.32 30.633333333333333
892 8 5 0.6666666666666666 81.55737903863358 65.7 30.633333333333333
893 8 6 0 79.363448015713 63.32 36.14
894 8 1 0 82.65434455009387 63.32 30.0
895 8 2 0 83.75131006155415 63.32 30.633333333333333
896 8 3 -0.6666666666666666 83.75131006155415 65.7 30.633333333333333
897 8 4 0 84.84827557301445 63.32 31.266666666666666
898 8 5 0.6666666666666666 84.84827557301445 60.94 31.266666666666666
899 8 6 0 82.65434455009387 63.32 25.759999999999998
900 8 1 0 85.94524108447473 63.32 31.9
901 8 2 0 87.04220659593501 63.32 31.266666666666666
902 8 3 -0.6666666666666666 87.04220659593501 60.94 31.266666666666666
903 8 4 0 88.13917210739531 63.32 30.633333333333333
904 8 5 0.6666666666666666 88.13917210739531 65.7 30.633333333333333
905 8 6 0 85.94524108447473 63.32 36.14
906 8 1 0 89.2361376188556 63.32 30.0
907 8 2 0 90.33310313031588 63.32 30.633333333333333
908 8 3 -0.6666666666666666 90.33310313031588 65.7 30.633333333333333
909 8 4 0 91.43006864177617 63.32 31.266666666666666
910 8 5 0.6666666666666666 91.43006864177617 60.94 31.266666666666666
911 8 6 0 89.2361376188556 63.32 25.759999999999998
912 8 1 0 92.52703415323647 63.32 31.9
913 9 1 0 30.0 68.08 30.0
914 9 2 0 31.09696551146029 68.08 30.633333333333333
915 9 3 -0.6666666666666666 31.09696551146029 70.46 30.633333333333333
916 9 4 0 32.19393102292058 68.08 31.266666666666666
917 9 5 0.6666666666666666 32.19393102292058 65.7 31.266666666666666
918 9 1 0 33.29089653438086 68.08 31.9
919 9 2 0 34.38786204584115 68.08 31.266666666666666
920 9 3 -0.6666666666666666 34.38786204584115 65.7 31.266666666666666
921 9 4 0 35.48482755730144 68.08 30.633333333333333
922 9 5 0.6666666666666666 35.48482755730144 70.46 30.633333333333333
923 9 6 0 33.29089653438086 68.08 36.14
924 9 1 0 36.58179306876173 68.08 30.0
925 9 2 0 37.67875858022202 68.08 30.633333333333333
926 9 3 -0.6666666666666666 37.67875858022202 70.46 30.633333333333333
927 9 4 0 38.775724091682314 68.08 31.266666666666666
928 9 5 0.6666666666666666 38.775724091682314 65.7 31.266666666666666
929 9 6 0 36.58179306876173 68.08 25.759999999999998
930 9 1 0 39.872689603142604 68.08 31.9
931 9 2 0 40.969655114602894 68.08 31.266666666666666
932 9 3 -0.6666666666666666 40.969655114602894 65.7 31.266666666666666
933 9 4 0 42.066620626063184 68.08 30.633333333333333
934 9 5 0.6666666666666666 42.066620626063184 70.46 30.633333333333333
935 9 6 0 39.872689603142604 68.08 36.14
936 9 1 0 43.16358613752347 68.08 30.0
937 9 2 0 44.26055164898376 68.08 30.633333333333333
938 9 3 -0.6666666666666666 44.26055164898376 70.46 30.633333333333333
939 9 4 0 45.35751716044405 68.08 31.266666666666666
940 9 5 0.6666666666666666 45.35751716044405 65.7 31.266666666666666
941 9 6 0 43.16358613752347 68.08 25.759999999999998
942 9 1 0 46.45448267190433 68.08 31.9
943 9 2 0 47.55144818336462 68.08 31.266666666666666
944 9 3 -0.6666666666666666 47.55144818336462 65.7 31.266666666666666
945 9 4 0 48.64841369482491 68.08 30.633333333333333
946 9 5 0.6666666666666666 48.64841369482491 70.46 30.633333333333333
947 9 6 0 46.45448267190433 68.08 36.14
948 9 1 0 49.7453792062852 68.08 30.0
949 9 2 0 50.84234471774549 68.08 30.633333333333333
950 9 3 -0.6666666666666666 50.84234471774549 70.46 30.633333333333333
951 9 4 0 51.93931022920578 68.08 31.266666666666666
952 9 5 0.6666666666666666 51.93931022920578 65.7 31.266666666666666
953 9 6 0 49.7453792062852 68.08 25.759999999999998
954 9 1 0 53.03627574066607 68.08 31.9
955 9 2 0 54.13324125212636 68.08 31.266666666666666
956 9 3 -0.6666666666666666 54.13324125212636 65.7 31.266666666666666
957 9 4 0 55.23020676358665 68.08 30.633333333333333
958 9 5 0.6666666666666666 55.23020676358665 70.46 30.633333333333333
959 9 6 0 53.03627574066607 68.08 36.14
960 9 1 0 56.327172275046934 68.08 30.0
961 9 2 0 57.424137786507224 68.08 30.633333333333333
962 9 3 -0.6666666666666666 57.424137786507224 70.46 30.633333333333333
963 9 4 0 58.521103297967514 68.08 31.266666666666666
964 9 5 0.6666666666666666 58.521103297967514 65.7 31.266666666666666
965 9 6 0 56.327172275046934 68.08 25.759999999999998
966 9 1 0 59.6180688094278 68.08 31.9
967 9 2 0 60.71503432088809 68.08 31.266666666666666
968 9 3 -0.6666666666666666 60.71503432088809 65.7 31.266666666666666
969 9 4 0 61.81199983234838 68.08 30.633333333333333
970 9 5 0.6666666666666666 61.81199983234838 70.46 30.633333333333333
971 9 6 0 59.6180688094278 68.08 36.14
972 9 1 0 62.90896534380867 68.08 30.0
973 9 2 0 64.00593085526896 68.08 30.633333333333333
974 9 3 -0.6666666666666666 64.00593085526896 70.46 30.633333333333333
975 9 4 0 65.10289636672924 68.08 31.266666666666666
976 9 5 0.6666666666666666 65.10289636672924 65.7 31.266666666666666
977 9 6 0 62.90896534380867 68.08 25.759999999999998
978 9 1 0 66.19986187818954 68.08 31.9
979 9 2 0 67.29682738964982 68.08 31.266666666666666
980 9 3 -0.6666666666666666 67.29682738964982 65.7 31.266666666666666
981 9 4 0 68.39379290111012 68.08 30.633333333333333
982 9 5 0.6666666666666666 68.39379290111012 70.46 30.633333333333333
983 9 6 0 66.19986187818954 68.08 36.14
984 9 1 0 69.4907584125704 68.08 30.0
985 9 2 0 70.58772392403068 68.08 30.633333333333333
986 9 3 -0.6666666666666666 70.58772392403068 70.46 30.633333333333333
987 9 4 0 71.68468943549098 68.08 31.266666666666666
988 9 5 0.6666666666666666 71.68468943549098 65.7 31.266666666666666
989 9 6 0 69.4907584125704 68.08 25.759999999999998
990 9 1 0 72.78165494695126 68.08 31.9
991 9 2 0 73.87862045841155 68.08 31.266666666666666
992 9 3 -0.6666666666666666 73.87862045841155 65.7 31.266666666666666
993 9 4 0 74.97558596987184 68.08 30.633333333333333
994 9 5 0.6666666666666666 74.97558596987184 70.46 30.633333333333333
995 9 6 0 72.78165494695126 68.08 36.14
996 9 1 0 76.07255148133214 68.08 30.0
997 9 2 0 77.16951699279242 68.08 30.633333333333333
998 9 3 -0.6666666666666666 77.16951699279242 70.46 30.633333333333333
999 9 4 0 78.26648250425272 68.08 31.266666666666666
1000 9 5 0.6666666666666666 78.26648250425272 65.7 31.266666666666666
1001 9 6 0 76.07255148133214 68.08 25.759999999999998
1002 9 1 0 79.363448015713 68.08 31.9
1003 9 2 0 80.46041352717329 68.08 31.266666666666666
1004 9 3 -0.6666666666666666 80.46041352717329 65.7 31.266666666666666
1005 9 4 0 81.55737903863358 68.08 30.633333333333333
1006 9 5 0.6666666666666666 81.55737903863358 70.46 30.633333333333333
1007 9 6 0 79.363448015713 68.08 36.14
1008 9 1 0 82.65434455009387 68.08 30.0
1009 9 2 0 83.75131006155415 68.08 30.633333333333333
1010 9 3 -0.6666666666666666 83.75131006155415 70.46 30.633333333333333
1011 9 4 0 84.84827557301445 68.08 31.266666666666666
1012 9 5 0.6666666666666666 84.84827557301445 65.7 31.266666666666666
1013 9 6 0 82.65434455009387 68.08 25.759999999999998
1014 9 1 0 85.94524108447473 68.08 31.9
1015 9 2 0 87.04220659593501 68.08 31.266666666666666
1016 9 3 -0.6666666666666666 87.04220659593501 65.7 31.266666666666666
1017 9 4 0 88.13917210739531 68.08 30.633333333333333
1018 9 5 0.6666666666666666 88.13917210739531 70.46 30.633333333333333
1019 9 6 0 85.94524108447473 68.08 36.14
1020 9 1 0 89.2361376188556 68.08 30.0
1021 9 2 0 90.33310313031588 68.08 30.633333333333333
1022 9 3 -0.6666666666666666 90.33310313031588 70.46 30.633333333333333
1023 9 4 0 91.43006864177617 68.08 31.266666666666666
1024 9 5 0.6666666666666666 91.43006864177617 65.7 31.266666666666666
1025 9 6 0 89.2361376188556 68.08 25.759999999999998
1026 9 1 0 92.52703415323647 68.08 31.9
1027 10 1 0 30.0 72.84 30.0
1028 10 2 0 31.09696551146029 72.84 30.633333333333333
1029 10 3 -0.6666666666666666 31.09696551146029 75.22 30.633333333333333
1030 10 4 0 32.19393102292058 72.84 31.266666666666666
1031 10 5 0.6666666666666666 32.19393102292058 70.46000000000001 31.266666666666666
1032 10 1 0 33.29089653438086 72.84 31.9
1033 10 2 0 34.38786204584115 72.84 31.266666666666666
1034 10 3 -0.6666666666666666 34.38786204584115 70.46000000000001 31.266666666666666
1035 10 4 0 35.48482755730144 72.84 30.633333333333333
1036 10 5 0.6666666666666666 35.48482755730144 75.22 30.633333333333333
1037 10 6 0 33.29089653438086 72.84 36.14
1038 10 1 0 36.58179306876173 72.84 30.0
1039 10 2 0 37.67875858022202 72.84 30.633333333333333
1040 10 3 -0.6666666666666666 37.67875858022202 75.22 30.633333333333333
1041 10 4 0 38.775724091682314 72.84 31.266666666666666
1042 10 5 0.6666666666666666 38.775724091682314 70.46000000000001 31.266666666666666
1043 10 6 0 36.58179306876173 72.84 25.759999999999998
1044 10 1 0 39.872689603142604 72.84 31.9
1045 10 2 0 40.969655114602894 72.84 31.266666666666666
1046 10 3 -0.6666666666666666 40.969655114602894 70.46000000000001 31.266666666666666
1047 10 4 0 42.066620626063184 72.84 30.633333333333333
1048 10 5 0.6666666666666666 42.066620626063184 75.22 30.633333333333333
1049 10 6 0 39.872689603142604 72.84 36.14
1050 10 1 0 43.16358613752347 72.84 30.0
1051 10 2 0 44.26055164898376 72.84 30.633333333333333
1052 10 3 -0.6666666666666666 44.26055164898376 75.22 30.633333333333333
1053 10 4 0 45.35751716044405 72.84 31.266666666666666
1054 10 5 0.6666666666666666 45.35751716044405 70.46000000000001 31.266666666666666
1055 10 6 0 43.16358613752347 72.84 25.759999999999998
1056 10 1 0 46.45448267190433 72.84 31.9
1057 10 2 0 47.55144818336462 72.84 31.266666666666666
1058 10 3 -0.6666666666666666 47.55144818336462 70.46000000000001 31.266666666666666
1059 10 4 0 48.64841369482491 72.84 30.633333333333333
1060 10 5 0.6666666666666666 48.64841369482491 75.22 30.633333333333333
1061 10 6 0 46.45448267190433 72.84 36.14
1062 10 1 0 49.7453792062852 72.84 30.0
1063 10 2 0 50.84234471774549 72.84 30.633333333333333
1064 10 3 -0.6666666666666666 50.84234471774549 75.22 30.633333333333333
1065 10 4 0 51.93931022920578 72.84 31.266666666666666
1066 10 5 0.6666666666666666 51.93931022920578 70.46000000000001 31.266666666666666
1067 10 6 0 49.7453792062852 72.84 25.759999999999998
1068 10 1 0 53.03627574066607 72.84 31.9
1069 10 2 0 54.13324125212636 72.84 31.266666666666666
1070 10 3 -0.6666666666666666 54.13324125212636 70.46000000000001 31.266666666666666
1071 10 4 0 55.23020676358665 72.84 30.633333333333333
1072 10 5 0.6666666666666666 55.23020676358665 75.22 30.633333333333333
1073 10 6 0 53.03627574066607 72.84 36.14
1074 10 1 0 56.327172275046934 72.84 30.0
1075 10 2 0 57.424137786507224 72.84 30.633333333333333
1076 10 3 -0.6666666666666666 57.424137786507224 75.22 30.633333333333333
1077 10 4 0 58.521103297967514 72.84 31.266666666666666
1078 10 5 0.6666666666666666 58.521103297967514 70.46000000000001 31.266666666666666
1079 10 6 0 56.327172275046934 72.84 25.759999999999998
1080 10 1 0 59.6180688094278 72.84 31.9
1081 10 2 0 60.71503432088809 72.84 31.266666666666666
1082 10 3 -0.6666666666666666 60.71503432088809 70.46000000000001 31.266666666666666
1083 10 4 0 61.81199983234838 72.84 30.633333333333333
1084 10 5 0.6666666666666666 61.81199983234838 75.22 30.633333333333333
1085 10 6 0 59.6180688094278 72.84 36.14
1086 10 1 0 62.90896534380867 72.84 30.0
1087 10 2 0 64.00593085526896 72.84 30.633333333333333
1088 10 3 -0.6666666666666666 64.00593085526896 75.22 30.633333333333333
1089 10 4 0 65.10289636672924 72.84 31.266666666666666
1090 10 5 0.6666666666666666 65.10289636672924 70.46000000000001 31.266666666666666
1091 10 6 0 62.90896534380867 72.84 25.759999999999998
1092 10 1 0 66.19986187818954 72.84 31.9
1093 10 2 0 67.29682738964982 72.84 31.266666666666666
1094 10 3 -0.6666666666666666 67.29682738964982 70.46000000000001 31.266666666666666
1095 10 4 0 68.39379290111012 72.84 30.633333333333333
1096 10 5 0.6666666666666666 68.39379290111012 75.22 30.633333333333333
1097 10 6 0 66.19986187818954 72.84 36.14
1098 10 1 0 69.4907584125704 72.84 30.0
1099 10 2 0 70.58772392403068 72.84 30.633333333333333
1100 10 3 -0.6666666666666666 70.58772392403068 75.22 30.633333333333333
1101 10 4 0 71.68468943549098 72.84 31.266666666666666
1102 10 5 0.6666666666666666 71.68468943549098 70.46000000000001 31.266666666666666
1103 10 6 0 69.4907584125704 72.84 25.759999999999998
1104 10 1 0 72.78165494695126 72.84 31.9
1105 10 2 0 73.87862045841155 72.84 31.266666666666666
1106 10 3 -0.6666666666666666 73.87862045841155 70.46000000000001 31.266666666666666
1107 10 4 0 74.97558596987184 72.84 30.633333333333333
1108 10 5 0.6666666666666666 74.97558596987184 75.22 30.633333333333333
1109 10 6 0 72.78165494695126 72.84 36.14
1110 10 1 0 76.07255148133214 72.84 30.0
1111 10 2 0 77.16951699279242 72.84 30.633333333333333
1112 10 3 -0.6666666666666666 77.16951699279242 75.22 30.633333333333333
1113 10 4 0 78.26648250425272 72.84 31.266666666666666
1114 10 5 0.6666666666666666 78.26648250425272 70.46000000000001 31.266666666666666
1115 10 6 0 76.07255148133214 72.84 25.759999999999998
1116 10 1 0 79.363448015713 72.84 31.9
1117 10 2 0 80.46041352717329 72.84 31.266666666666666
1118 10 3 -0.6666666666666666 80.46041352717329 70.46000000000001 31.266666666666666
1119 10 4 0 81.55737903863358 72.84 30.633333333333333
1120 10 5 0.6666666666666666 81.55737903863358 75.22 30.633333333333333
1121 10 6 0 79.363448015713 72.84 36.14
1122 10 1 0 82.65434455009387 72.84 30.0
1123 10 2 0 83.75131006155415 72.84 30.633333333333333
1124 10 3 -0.6666666666666666 83.75131006155415 75.22 30.633333333333333
1125 10 4 0 84.84827557301445 72.84 31.266666666666666
1126 10 5 0.6666666666666666 84.84827557301445 70.46000000000001 31.266666666666666
1127 10 6 0 82.65434455009387 72.84 25.759999999999998
1128 10 1 0 85.94524108447473 72.84 31.9
1129 10 2 0 87.04220659593501 72.84 31.266666666666666
1130 10 3 -0.6666666666666666 87.04220659593501 70.46000000000001 31.266666666666666
1131 10 4 0 88.13917210739531 72.84 30.633333333333333
1132 10 5 0.6666666666666666 88.13917210739531 75.22 30.633333333333333
1133 10 6 0 85.94524108447473 72.84 36.14
1134 10 1 0 89.2361376188556 72.84 30.0
1135 10 2 0 90.33310313031588 72.84 30.633333333333333
1136 10 3 -0.6666666666666666 90.33310313031588 75.22 30.633333333333333
1137 10 4 0 91.43006864177617 72.84 31.266666666666666
1138 10 5 0.6666666666666666 91.43006864177617 70.46000000000001 31.266666666666666
1139 10 6 0 89.2361376188556 72.84 25.759999999999998
1140 10 1 0 92.52703415323647 72.84 31.9
1141 11 1 0 30.0 77.6 30.0
1142 11 2 0 31.09696551146029 77.6 30.633333333333333
1143 11 3 -0.6666666666666666 31.09696551146029 79.97999999999999 30.633333333333333
1144 11 4 0 32.19393102292058 77.6 31.266666666666666
1145 11 5 0.6666666666666666 32.19393102292058 75.22 31.266666666666666
1146 11 1 0 33.29089653438086 77.6 31.9
1147 11 2 0 34.38786204584115 77.6 31.266666666666666
1148 11 3 -0.6666666666666666 34.38786204584115 75.22 31.266666666666666
1149 11 4 0 35.48482755730144 77.6 30.633333333333333
1150 11 5 0.6666666666666666 35.48482755730144 79.97999999999999 30.633333333333333
1151 11 6 0 33.29089653438086 77.6 36.14
1152 11 1 0 36.58179306876173 77.6 30.0
1153 11 2 0 37.67875858022202 77.6 30.633333333333333
1154 11 3 -0.6666666666666666 37.67875858022202 79.97999999999999 30.633333333333333
1155 11 4 0 38.775724091682314 77.6 31.266666666666666
1156 11 5 0.6666666666666666 38.775724091682314 75.22 31.266666666666666
1157 11 6 0 36.58179306876173 77.6 25.759999999999998
1158 11 1 0 39.872689603142604 77.6 31.9
1159 11 2 0 40.969655114602894 77.6 31.266666666666666
1160 11 3 -0.6666666666666666 40.969655114602894 75.22 31.266666666666666
1161 11 4 0 42.066620626063184 77.6 30.633333333333333
1162 11 5 0.6666666666666666 42.066620626063184 79.97999999999999 30.633333333333333
1163 11 6 0 39.872689603142604 77.6 36.14
1164 11 1 0 43.16358613752347 77.6 30.0
1165 11 2 0 44.26055164898376 77.6 30.633333333333333
1166 11 3 -0.6666666666666666 44.26055164898376 79.97999999999999 30.633333333333333
1167 11 4 0 45.35751716044405 77.6 31.266666666666666
1168 11 5 0.6666666666666666 45.35751716044405 75.22 31.266666666666666
1169 11 6 0 43.16358613752347 77.6 25.759999999999998
1170 11 1 0 46.45448267190433 77.6 31.9
1171 11 2 0 47.55144818336462 77.6 31.266666666666666
1172 11 3 -0.6666666666666666 47.55144818336462 75.22 31.266666666666666
1173 11 4 0 48.64841369482491 77.6 30.633333333333333
1174 11 5 0.6666666666666666 48.64841369482491 79.97999999999999 30.633333333333333
1175 11 6 0 46.45448267190433 77.6 36.14
1176 11 1 0 49.7453792062852 77.6 30.0
1177 11 2 0 50.84234471774549 77.6 30.633333333333333
1178 11 3 -0.6666666666666666 50.84234471774549 79.97999999999999 30.633333333333333
1179 11 4 0 51.93931022920578 77.6 31.266666666666666
1180 11 5 0.6666666666666666 51.93931022920578 75.22 31.266666666666666
1181 11 6 0 49.7453792062852 77.6 25.759999999999998
1182 11 1 0 53.03627574066607 77.6 31.9
1183 11 2 0 54.13324125212636 77.6 31.266666666666666
1184 11 3 -0.6666666666666666 54.13324125212636 75.22 31.266666666666666
1185 11 4 0 55.23020676358665 77.6 30.633333333333333
1186 11 5 0.6666666666666666 55.23020676358665 79.97999999999999 30.633333333333333
1187 11 6 0 53.03627574066607 77.6 36.14
1188 11 1 0 56.327172275046934 77.6 30.0
1189 11 2 0 57.424137786507224 77.6 30.633333333333333
1190 11 3 -0.6666666666666666 57.424137786507224 79.97999999999999 30.633333333333333
1191 11 4 0 58.521103297967514 77.6 31.266666666666666
1192 11 5 0.6666666666666666 58.521103297967514 75.22 31.266666666666666
1193 11 6 0 56.327172275046934 77.6 25.759999999999998
1194 11 1 0 59.6180688094278 77.6 31.9
1195 11 2 0 60.71503432088809 77.6 31.266666666666666
1196 11 3 -0.6666666666666666 60.71503432088809 75.22 31.266666666666666
1197 11 4 0 61.81199983234838 77.6 30.633333333333333
1198 11 5 0.6666666666666666 61.81199983234838 79.97999999999999 30.633333333333333
1199 11 6 0 59.6180688094278 77.6 36.14
1200 11 1 0 62.90896534380867 77.6 30.0
1201 11 2 0 64.00593085526896 77.6 30.633333333333333
1202 11 3 -0.6666666666666666 64.00593085526896 79.97999999999999 30.633333333333333
1203 11 4 0 65.10289636672924 77.6 31.266666666666666
1204 11 5 0.6666666666666666 65.10289636672924 75.22 31.266666666666666
1205 11 6 0 62.90896534380867 77.6 25.759999999999998
1206 11 1 0 66.19986187818954 77.6 31.9
1207 11 2 0 67.29682738964982 77.6 31.266666666666666
1208 11 3 -0.6666666666666666 67.29682738964982 75.22 31.266666666666666
1209 11 4 0 68.39379290111012 77.6 30.633333333333333
1210 11 5 0.6666666666666666 68.39379290111012 79.97999999999999 30.633333333333333
1211 11 6 0 66.19986187818954 77.6 36.14
1212 11 1 0 69.4907584125704 77.6 30.0
1213 11 2 0 70.58772392403068 77.6 30.633333333333333
1214 11 3 -0.6666666666666666 70.58772392403068 79.97999999999999 30.633333333333333
1215 11 4 0 71.68468943549098 77.6 31.266666666666666
1216 11 5 0.6666666666666666 71.68468943549098 75.22 31.266666666666666
1217 11 6 0 69.4907584125704 77.6 25.759999999999998
1218 11 1 0 72.78165494695126 77.6 31.9
1219 11 2 0 73.87862045841155 77.6 31.266666666666666
1220 11 3 -0.6666666666666666 73.87862045841155 75.22 31.266666666666666
1221 11 4 0 74.97558596987184 77.6 30.633333333333333
1222 11 5 0.6666666666666666 74.97558596987184 79.97999999999999 30.633333333333333
1223 11 6 0 72.78165494695126 77.6 36.14
1224 11 1 0 76.07255148133214 77.6 30.0
1225 11 2 0 77.16951699279242 77.6 30.633333333333333
1226 11 3 -0.6666666666666666 77.16951699279242 79.97999999999999 30.633333333333333
1227 11 4 0 78.26648250425272 77.6 31.266666666666666
1228 11 5 0.6666666666666666 78.26648250425272 75.22 31.266666666666666
1229 11 6 0 76.07255148133214 77.6 25.759999999999998
1230 11 1 0 79.363448015713 77.6 31.9
1231 11 2 0 80.46041352717329 77.6 31.266666666666666
1232 11 3 -0.6666666666666666 80.46041352717329 75.22 31.266666666666666
1233 11 4 0 81.55737903863358 77.6 30.633333333333333
1234 11 5 0.6666666666666666 81.55737903863358 79.97999999999999 30.633333333333333
1235 11 6 0 79.363448015713 77.6 36.14
1236 11 1 0 82.65434455009387 77.6 30.0
1237 11 2 0 83.75131006155415 77.6 30.633333333333333
1238 11 3 -0.6666666666666666 83.75131006155415 79.97999999999999 30.633333333333333
1239 11 4 0 84.84827557301445 77.6 31.266666666666666
1240 11 5 0.6666666666666666 84.84827557301445 75.22 31.266666666666666
1241 11 6 0 82.65434455009387 77.6 25.759999999999998
1242 11 1 0 85.94524108447473 77.6 31.9
1243 11 2 0 87.04220659593501 77.6 31.266666666666666
1244 11 3 -0.6666666666666666 87.04220659593501 75.22 31.266666666666666
1245 11 4 0 88.13917210739531 77.6 30.633333333333333
1246 11 5 0.6666666666666666 88.13917210739531 79.97999999999999 30.633333333333333
1247 11 6 0 85.94524108447473 77.6 36.14
1248 11 1 0 89.2361376188556 77.6 30.0
1249 11 2 0 90.33310313031588 77.6 30.633333333333333
1250 11 3 -0.6666666666666666 90.33310313031588 79.97999999999999 30.633333333333333
1251 11 4 0 91.43006864177617 77.6 31.266666666666666
1252 11 5 0.6666666666666666 91.43006864177617 75.22 31.266666666666666
1253 11 6 0 89.2361376188556 77.6 25.759999999999998
1254 11 1 0 92.52703415323647 77.6 31.9
1255 12 1 0 30.0 82.36 30.0
1256 12 2 0 31.09696551146029 82.36 30.633333333333333
1257 12 3 -0.6666666666666666 31.09696551146029 84.74 30.633333333333333
1258 12 4 0 32.19393102292058 82.36 31.266666666666666
1259 12 5 0.6666666666666666 32.19393102292058 79.98 31.266666666666666
1260 12 1 0 33.29089653438086 82.36 31.9
1261 12 2 0 34.38786204584115 82.36 31.266666666666666
1262 12 3 -0.6666666666666666 34.38786204584115 79.98 31.266666666666666
1263 12 4 0 35.48482755730144 82.36 30.633333333333333
1264 12 5 0.6666666666666666 35.48482755730144 84.74 30.633333333333333
1265 12 6 0 33.29089653438086 82.36 36.14
1266 12 1 0 36.58179306876173 82.36 30.0
1267 12 2 0 37.67875858022202 82.36 30.633333333333333
1268 12 3 -0.6666666666666666 37.67875858022202 84.74 30.633333333333333
1269 12 4 0 38.775724091682314 82.36 31.266666666666666
1270 12 5 0.6666666666666666 38.775724091682314 79.98 31.266666666666666
1271 12 6 0 36.58179306876173 82.36 25.759999999999998
1272 12 1 0 39.872689603142604 82.36 31.9
1273 12 2 0 40.969655114602894 82.36 31.266666666666666
1274 12 3 -0.6666666666666666 40.969655114602894 79.98 31.266666666666666
1275 12 4 0 42.066620626063184 82.36 30.633333333333333
1276 12 5 0.6666666666666666 42.066620626063184 84.74 30.633333333333333
1277 12 6 0 39.872689603142604 82.36 36.14
1278 12 1 0 43.16358613752347 82.36 30.0
1279 12 2 0 44.26055164898376 82.36 30.633333333333333
1280 12 3 -0.6666666666666666 44.26055164898376 84.74 30.633333333333333
1281 12 4 0 45.35751716044405 82.36 31.266666666666666
1282 12 5 0.6666666666666666 45.35751716044405 79.98 31.266666666666666
1283 12 6 0 43.16358613752347 82.36 25.759999999999998
1284 12 1 0 46.45448267190433 82.36 31.9
1285 12 2 0 47.55144818336462 82.36 31.266666666666666
1286 12 3 -0.6666666666666666 47.55144818336462 79.98 31.266666666666666
1287 12 4 0 48.64841369482491 82.36 30.633333333333333
1288 12 5 0.6666666666666666 48.64841369482491 84.74 30.633333333333333
1289 12 6 0 46.45448267190433 82.36 36.14
1290 12 1 0 49.7453792062852 82.36 30.0
1291 12 2 0 50.84234471774549 82.36 30.633333333333333
1292 12 3 -0.6666666666666666 50.84234471774549 84.74 30.633333333333333
1293 12 4 0 51.93931022920578 82.36 31.266666666666666
1294 12 5 0.6666666666666666 51.93931022920578 79.98 31.266666666666666
1295 12 6 0 49.7453792062852 82.36 25.759999999999998
1296 12 1 0 53.03627574066607 82.36 31.9
1297 12 2 0 54.13324125212636 82.36 31.266666666666666
1298 12 3 -0.6666666666666666 54.13324125212636 79.98 31.266666666666666
1299 12 4 0 55.23020676358665 82.36 30.633333333333333
1300 12 5 0.6666666666666666 55.23020676358665 84.74 30.633333333333333
1301 12 6 0 53.03627574066607 82.36 36.14
1302 12 1 0 56.327172275046934 82.36 30.0
1303 12 2 0 57.424137786507224 82.36 30.633333333333333
1304 12 3 -0.6666666666666666 57.424137786507224 84.74 30.633333333333333
1305 12 4 0 58.521103297967514 82.36 31.266666666666666
1306 12 5 0.6666666666666666 58.521103297967514 79.98 31.266666666666666
1307 12 6 0 56.327172275046934 82.36 25.759999999999998
1308 12 1 0 59.6180688094278 82.36 31.9
1309 12 2 0 60.71503432088809 82.36 31.266666666666666
1310 12 3 -0.6666666666666666 60.71503432088809 79.98 31.266666666666666
1311 12 4 0 61.81199983234838 82.36 30.633333333333333
1312 12 5 0.6666666666666666 61.81199983234838 84.74 30.633333333333333
1313 12 6 0 59.6180688094278 82.36 36.14
1314 12 1 0 62.90896534380867 82.36 30.0
1315 12 2 0 64.00593085526896 82.36 30.633333333333333
1316 12 3 -0.6666666666666666 64.00593085526896 84.74 30.633333333333333
1317 12 4 0 65.10289636672924 82.36 31.266666666666666
1318 12 5 0.6666666666666666 65.10289636672924 79.98 31.266666666666666
1319 12 6 0 62.90896534380867 82.36 25.759999999999998
1320 12 1 0 66.19986187818954 82.36 31.9
1321 12 2 0 67.29682738964982 82.36 31.266666666666666
1322 12 3 -0.6666666666666666 67.29682738964982 79.98 31.266666666666666
1323 12 4 0 68.39379290111012 82.36 30.633333333333333
1324 12 5 0.6666666666666666 68.39379290111012 84.74 30.633333333333333
1325 12 6 0 66.19986187818954 82.36 36.14
1326 12 1 0 69.4907584125704 82.36 30.0
1327 12 2 0 70.58772392403068 82.36 30.633333333333333
1328 12 3 -0.6666666666666666 70.58772392403068 84.74 30.633333333333333
1329 12 4 0 71.68468943549098 82.36 31.266666666666666
1330 12 5 0.6666666666666666 71.68468943549098 79.98 31.266666666666666
1331 12 6 0 69.4907584125704 82.36 25.759999999999998
1332 12 1 0 72.78165494695126 82.36 31.9
1333 12 2 0 73.87862045841155 82.36 31.266666666666666
1334 12 3 -0.6666666666666666 73.87862045841155 79.98 31.266666666666666
1335 12 4 0 74.97558596987184 82.36 30.633333333333333
1336 12 5 0.6666666666666666 74.97558596987184 84.74 30.633333333333333
1337 12 6 0 72.78165494695126 82.36 36.14
1338 12 1 0 76.07255148133214 82.36 30.0
1339 12 2 0 77.16951699279242 82.36 30.633333333333333
1340 12 3 -0.6666666666666666 77.16951699279242 84.74 30.633333333333333
1341 12 4 0 78.26648250425272 82.36 31.266666666666666
1342 12 5 0.6666666666666666 78.26648250425272 79.98 31.266666666666666
1343 12 6 0 76.07255148133214 82.36 25.759999999999998
1344 12 1 0 79.363448015713 82.36 31.9
1345 12 2 0 80.46041352717329 82.36 31.266666666666666
1346 12 3 -0.6666666666666666 80.46041352717329 79.98 31.266666666666666
1347 12 4 0 81.55737903863358 82.36 30.633333333333333
1348 12 5 0.6666666666666666 81.55737903863358 84.74 30.633333333333333
1349 12 6 0 79.363448015713 82.36 36.14
1350 12 1 0 82.65434455009387 82.36 30.0
1351 12 2 0 83.75131006155415 82.36 30.633333333333333
1352 12 3 -0.6666666666666666 83.75131006155415 84.74 30.633333333333333
1353 12 4 0 84.84827557301445 82.36 31.266666666666666
1354 12 5 0.6666666666666666 84.84827557301445 79.98 31.266666666666666
1355 12 6 0 82.65434455009387 82.36 25.759999999999998
1356 12 1 0 85.94524108447473 82.36 31.9
1357 12 2 0 87.04220659593501 82.36 31.266666666666666
1358 12 3 -0.6666666666666666 87.04220659593501 79.98 31.266666666666666
1359 12 4 0 88.13917210739531 82.36 30.633333333333333
1360 12 5 0.6666666666666666 88.13917210739531 84.74 30.633333333333333
1361 12 6 0 85.94524108447473 82.36 36.14
1362 12 1 0 89.2361376188556 82.36 30.0
1363 12 2 0 90.33310313031588 82.36 30.633333333333333
1364 12 3 -0.6666666666666666 90.33310313031588 84.74 30.633333333333333
1365 12 4 0 91.43006864177617 82.36 31.266666666666666
1366 12 5 0.6666666666666666 91.43006864177617 79.98 31.266666666666666
1367 12 6 0 89.2361376188556 82.36 25.759999999999998
1368 12 1 0 92.52703415323647 82.36 31.9
1369 13 1 0 30.0 30.0 38.2
1370 13 2 0 31.09696551146029 30.0 38.833333333333336
1371 13 3 -0.6666666666666666 31.09696551146029 32.38 38.833333333333336
1372 13 4 0 32.19393102292058 30.0 39.46666666666667
1373 13 5 0.6666666666666666 32.19393102292058 27.62 39.46666666666667
1374 13 1 0 33.29089653438086 30.0 40.1
1375 13 2 0 34.38786204584115 30.0 39.46666666666667
1376 13 3 -0.6666666666666666 34.38786204584115 27.62 39.46666666666667
1377 13 4 0 35.48482755730144 30.0 38.833333333333336
1378 13 5 0.6666666666666666 35.48482755730144 32.38 38.833333333333336
1379 13 6 0 33.29089653438086 30.0 44.34
1380 13 1 0 36.58179306876173 30.0 38.2
1381 13 2 0 37.67875858022202 30.0 38.833333333333336
1382 13 3 -0.6666666666666666 37.67875858022202 32.38 38.833333333333336
1383 13 4 0 38.775724091682314 30.0 39.46666666666667
1384 13 5 0.6666666666666666 38.775724091682314 27.62 39.46666666666667
1385 13 6 0 36.58179306876173 30.0 33.96
1386 13 1 0 39.872689603142604 30.0 40.1
1387 13 2 0 40.969655114602894 30.0 39.46666666666667
1388 13 3 -0.6666666666666666 40.969655114602894 27.62 39.46666666666667
1389 13 4 0 42.066620626063184 30.0 38.833333333333336
1390 13 5 0.6666666666666666 42.066620626063184 32.38 38.833333333333336
1391 13 6 0 39.872689603142604 30.0 44.34
1392 13 1 0 43.16358613752347 30.0 38.2
1393 13 2 0 44.26055164898376 30.0 38.833333333333336
1394 13 3 -0.6666666666666666 44.26055164898376 32.38 38.833333333333336
1395 13 4 0 45.35751716044405 30.0 39.46666666666667
1396 13 5 0.6666666666666666 45.35751716044405 27.62 39.46666666666667
1397 13 6 0 43.16358613752347 30.0 33.96
1398 13 1 0 46.45448267190433 30.0 40.1
1399 13 2 0 47.55144818336462 30.0 39.46666666666667
1400 13 3 -0.6666666666666666 47.55144818336462 27.62 39.46666666666667
1401 13 4 0 48.64841369482491 30.0 38.833333333333336
1402 13 5 0.6666666666666666 48.64841369482491 32.38 38.833333333333336
1403 13 6 0 46.45448267190433 30.0 44.34
1404 13 1 0 49.7453792062852 30.0 38.2
1405 13 2 0 50.84234471774549 30.0 38.833333333333336
1406 13 3 -0.6666666666666666 50.84234471774549 32.38 38.833333333333336
1407 13 4 0 51.93931022920578 30.0 39.46666666666667
1408 13 5 0.6666666666666666 51.93931022920578 27.62 39.46666666666667
1409 13 6 0 49.7453792062852 30.0 33.96
1410 13 1 0 53.03627574066607 30.0 40.1
1411 13 2 0 54.13324125212636 30.0 39.46666666666667
1412 13 3 -0.6666666666666666 54.13324125212636 27.62 39.46666666666667
1413 13 4 0 55.23020676358665 30.0 38.833333333333336
1414 13 5 0.6666666666666666 55.23020676358665 32.38 38.833333333333336
1415 13 6 0 53.03627574066607 30.0 44.34
1416 13 1 0 56.327172275046934 30.0 38.2
1417 13 2 0 57.424137786507224 30.0 38.833333333333336
1418 13 3 -0.6666666666666666 57.424137786507224 32.38 38.833333333333336
1419 13 4 0 58.521103297967514 30.0 39.46666666666667
1420 13 5 0.6666666666666666 58.521103297967514 27.62 39.46666666666667
1421 13 6 0 56.327172275046934 30.0 33.96
1422 13 1 0 59.6180688094278 30.0 40.1
1423 13 2 0 60.71503432088809 30.0 39.46666666666667
1424 13 3 -0.6666666666666666 60.71503432088809 27.62 39.46666666666667
1425 13 4 0 61.81199983234838 30.0 38.833333333333336
1426 13 5 0.6666666666666666 61.81199983234838 32.38 38.833333333333336
1427 13 6 0 59.6180688094278 30.0 44.34
1428 13 1 0 62.90896534380867 30.0 38.2
1429 13 2 0 64.00593085526896 30.0 38.833333333333336
1430 13 3 -0.6666666666666666 64.00593085526896 32.38 38.833333333333336
1431 13 4 0 65.10289636672924 30.0 39.46666666666667
1432 13 5 0.6666666666666666 65.10289636672924 27.62 39.46666666666667
1433 13 6 0 62.90896534380867 30.0 33.96
1434 13 1 0 66.19986187818954 30.0 40.1
1435 13 2 0 67.29682738964982 30.0 39.46666666666667
1436 13 3 -0.6666666666666666 67.29682738964982 27.62 39.46666666666667
1437 13 4 0 68.39379290111012 30.0 38.833333333333336
1438 13 5 0.6666666666666666 68.39379290111012 32.38 38.833333333333336
1439 13 6 0 66.19986187818954 30.0 44.34
1440 13 1 0 69.4907584125704 30.0 38.2
1441 13 2 0 70.58772392403068 30.0 38.833333333333336
1442 13 3 -0.6666666666666666 70.58772392403068 32.38 38.833333333333336
1443 13 4 0 71.68468943549098 30.0 39.46666666666667
1444 13 5 0.6666666666666666 71.68468943549098 27.62 39.46666666666667
1445 13 6 0 69.4907584125704 30.0 33.96
1446 13 1 0 72.78165494695126 30.0 40.1
1447 13 2 0 73.87862045841155 30.0 39.46666666666667
1448 13 3 -0.6666666666666666 73.87862045841155 27.62 39.46666666666667
1449 13 4 0 74.97558596987184 30.0 38.833333333333336
1450 13 5 0.6666666666666666 74.97558596987184 32.38 38.833333333333336
1451 13 6 0 72.78165494695126 30.0 44.34
1452 13 1 0 76.07255148133214 30.0 38.2
1453 13 2 0 77.16951699279242 30.0 38.833333333333336
1454 13 3 -0.6666666666666666 77.16951699279242 32.38 38.833333333333336
1455 13 4 0 78.26648250425272 30.0 39.46666666666667
1456 13 5 0.6666666666666666 78.26648250425272 27.62 39.46666666666667
1457 13 6 0 76.07255148133214 30.0 33.96
1458 13 1 0 79.363448015713 30.0 40.1
1459 13 2 0 80.46041352717329 30.0 39.46666666666667
1460 13 3 -0.6666666666666666 80.46041352717329 27.62 39.46666666666667
1461 13 4 0 81.55737903863358 30.0 38.833333333333336
1462 13 5 0.6666666666666666 81.55737903863358 32.38 38.833333333333336
1463 13 6 0 79.363448015713 30.0 44.34
1464 13 1 0 82.65434455009387 30.0 38.2
1465 13 2 0 83.75131006155415 30.0 38.833333333333336
1466 13 3 -0.6666666666666666 83.75131006155415 32.38 38.833333333333336
1467 13 4 0 84.84827557301445 30.0 39.46666666666667
1468 13 5 0.6666666666666666 84.84827557301445 27.62 39.46666666666667
1469 13 6 0 82.65434455009387 30.0 33.96
1470 13 1 0 85.94524108447473 30.0 40.1
1471 13 2 0 87.04220659593501 30.0 39.46666666666667
1472 13 3 -0.6666666666666666 87.04220659593501 27.62 39.46666666666667
1473 13 4 0 88.13917210739531 30.0 38.833333333333336
1474 13 5 0.6666666666666666 88.13917210739531 32.38 38.833333333333336
1475 13 6 0 85.94524108447473 30.0 44.34
1476 13 1 0 89.2361376188556 30.0 38.2
1477 13 2 0 90.33310313031588 30.0 38.833333333333336
1478 13 3 -0.6666666666666666 90.33310313031588 32.38 38.833333333333336
1479 13 4 0 91.43006864177617 30.0 39.46666666666667
1480 13 5 0.6666666666666666 91.43006864177617 27.62 39.46666666666667
1481 13 6 0 89.2361376188556 30.0 33.96
1482 13 1 0 92.52703415323647 30.0 40.1
1483 14 1 0 30.0 34.76 38.2
1484 14 2 0 31.09696551146029 34.76 38.833333333333336
1485 14 3 -0.6666666666666666 31.09696551146029 37.14 38.833333333333336
1486 14 4 0 32.19393102292058 34.76 39.46666666666667
1487 14 5 0.6666666666666666 32.19393102292058 32.379999999999995 39.46666666666667
1488 14 1 0 33.29089653438086 34.76 40.1
1489 14 2 0 34.38786204584115 34.76 39.46666666666667
1490 14 3 -0.6666666666666666 34.38786204584115 32.379999999999995 39.46666666666667
1491 14 4 0 35.48482755730144 34.76 38.833333333333336
1492 14 5 0.6666666666666666 35.48482755730144 37.14 38.833333333333336
1493 14 6 0 33.29089653438086 34.76 44.34
1494 14 1 0 36.58179306876173 34.76 38.2
1495 14 2 0 37.67875858022202 34.76 38.833333333333336
1496 14 3 -0.6666666666666666 37.67875858022202 37.14 38.833333333333336
1497 14 4 0 38.775724091682314 34.76 39.46666666666667
1498 14 5 0.6666666666666666 38.775724091682314 32.379999999999995 39.46666666666667
1499 14 6 0 36.58179306876173 34.76 33.96
1500 14 1 0 39.872689603142604 34.76 40.1
1501 14 2 0 40.969655114602894 34.76 39.46666666666667
1502 14 3 -0.6666666666666666 40.969655114602894 32.379999999999995 39.46666666666667
1503 14 4 0 42.066620626063184 34.76 38.833333333333336
1504 14 5 0.6666666666666666 42.066620626063184 37.14 38.833333333333336
1505 14 6 0 39.872689603142604 34.76 44.34
1506 14 1 0 43.16358613752347 34.76 38.2
1507 14 2 0 44.26055164898376 34.76 38.833333333333336
1508 14 3 -0.6666666666666666 44.26055164898376 37.14 38.833333333333336
1509 14 4 0 45.35751716044405 34.76 39.46666666666667
1510 14 5 0.6666666666666666 45.35751716044405 32.379999999999995 39.46666666666667
1511 14 6 0 43.16358613752347 34.76 33.96
1512 14 1 0 46.45448267190433 34.76 40.1
1513 14 2 0 47.55144818336462 34.76 39.46666666666667
1514 14 3 -0.6666666666666666 47.55144818336462 32.379999999999995 39.46666666666667
1515 14 4 0 48.64841369482491 34.76 38.833333333333336
1516 14 5 0.6666666666666666 48.64841369482491 37.14 38.833333333333336
1517 14 6 0 46.45448267190433 34.76 44.34
1518 14 1 0 49.7453792062852 34.76 38.2
1519 14 2 0 50.84234471774549 34.76 38.833333333333336
1520 14 3 -0.6666666666666666 50.84234471774549 37.14 38.833333333333336
1521 14 4 0 51.93931022920578 34.76 39.46666666666667
1522 14 5 0.6666666666666666 51.93931022920578 32.379999999999995 39.46666666666667
1523 14 6 0 49.7453792062852 34.76 33.96
1524 14 1 0 53.03627574066607 34.76 40.1
1525 14 2 0 54.13324125212636 34.76 39.46666666666667
1526 14 3 -0.6666666666666666 54.13324125212636 32.379999999999995 39.46666666666667
1527 14 4 0 55.23020676358665 34.76 38.833333333333336
1528 14 5 0.6666666666666666 55.23020676358665 37.14 38.833333333333336
1529 14 6 0 53.03627574066607 34.76 44.34
1530 14 1 0 56.327172275046934 34.76 38.2
1531 14 2 0 57.424137786507224 34.76 38.833333333333336
1532 14 3 -0.6666666666666666 57.424137786507224 37.14 38.833333333333336
1533 14 4 0 58.521103297967514 34.76 39.46666666666667
1534 14 5 0.6666666666666666 58.521103297967514 32.379999999999995 39.46666666666667
1535 14 6 0 56.327172275046934 34.76 33.96
1536 14 1 0 59.6180688094278 34.76 40.1
1537 14 2 0 60.71503432088809 34.76 39.46666666666667
1538 14 3 -0.6666666666666666 60.71503432088809 32.379999999999995 39.46666666666667
1539 14 4 0 61.81199983234838 34.76 38.833333333333336
1540 14 5 0.6666666666666666 61.81199983234838 37.14 38.833333333333336
1541 14 6 0 59.6180688094278 34.76 44.34
1542 14 1 0 62.90896534380867 34.76 38.2
1543 14 2 0 64.00593085526896 34.76 38.833333333333336
1544 14 3 -0.6666666666666666 64.00593085526896 37.14 38.833333333333336
1545 14 4 0 65.10289636672924 34.76 39.46666666666667
1546 14 5 0.6666666666666666 65.10289636672924 32.379999999999995 39.46666666666667
1547 14 6 0 62.90896534380867 34.76 33.96
1548 14 1 0 66.19986187818954 34.76 40.1
1549 14 2 0 67.29682738964982 34.76 39.46666666666667
1550 14 3 -0.6666666666666666 67.29682738964982 32.379999999999995 39.46666666666667
1551 14 4 0 68.39379290111012 34.76 38.833333333333336
1552 14 5 0.6666666666666666 68.39379290111012 37.14 38.833333333333336
1553 14 6 0 66.19986187818954 34.76 44.34
1554 14 1 0 69.4907584125704 34.76 38.2
1555 14 2 0 70.58772392403068 34.76 38.833333333333336
1556 14 3 -0.6666666666666666 70.58772392403068 37.14 38.833333333333336
1557 14 4 0 71.68468943549098 34.76 39.46666666666667
1558 14 5 0.6666666666666666 71.68468943549098 32.379999999999995 39.46666666666667
1559 14 6 0 69.4907584125704 34.76 33.96
1560 14 1 0 72.78165494695126 34.76 40.1
1561 14 2 0 73.87862045841155 34.76 39.46666666666667
1562 14 3 -0.6666666666666666 73.87862045841155 32.379999999999995 39.46666666666667
1563 14 4 0 74.97558596987184 34.76 38.833333333333336
1564 14 5 0.6666666666666666 74.97558596987184 37.14 38.833333333333336
1565 14 6 0 72.78165494695126 34.76 44.34
1566 14 1 0 76.07255148133214 34.76 38.2
1567 14 2 0 77.16951699279242 34.76 38.833333333333336
1568 14 3 -0.6666666666666666 77.16951699279242 37.14 38.833333333333336
1569 14 4 0 78.26648250425272 34.76 39.46666666666667
1570 14 5 0.6666666666666666 78.26648250425272 32.379999999999995 39.46666666666667
1571 14 6 0 76.07255148133214 34.76 33.96
1572 14 1 0 79.363448015713 34.76 40.1
1573 14 2 0 80.46041352717329 34.76 39.46666666666667
1574 14 3 -0.6666666666666666 80.46041352717329 32.379999999999995 39.46666666666667
1575 14 4 0 81.55737903863358 34.76 38.833333333333336
1576 14 5 0.6666666666666666 81.55737903863358 37.14 38.833333333333336
1577 14 6 0 79.363448015713 34.76 44.34
1578 14 1 0 82.65434455009387 34.76 38.2
1579 14 2 0 83.75131006155415 34.76 38.833333333333336
1580 14 3 -0.6666666666666666 83.75131006155415 37.14 38.833333333333336
1581 14 4 0 84.84827557301445 34.76 39.46666666666667
1582 14 5 0.6666666666666666 84.84827557301445 32.379999999999995 39.46666666666667
1583 14 6 0 82.65434455009387 34.76 33.96
1584 14 1 0 85.94524108447473 34.76 40.1
1585 14 2 0 87.04220659593501 34.76 39.46666666666667
1586 14 3 -0.6666666666666666 87.04220659593501 32.379999999999995 39.46666666666667
1587 14 4 0 88.13917210739531 34.76 38.833333333333336
1588 14 5 0.6666666666666666 88.13917210739531 37.14 38.833333333333336
1589 14 6 0 85.94524108447473 34.76 44.34
1590 14 1 0 89.2361376188556 34.76 38.2
1591 14 2 0 90.33310313031588 34.76 38.833333333333336
1592 14 3 -0.6666666666666666 90.33310313031588 37.14 38.833333333333336
1593 14 4 0 91.43006864177617 34.76 39.46666666666667
1594 14 5 0.6666666666666666 91.43006864177617 32.379999999999995 39.46666666666667
1595 14 6 0 89.2361376188556 34.76 33.96
1596 14 1 0 92.52703415323647 34.76 40.1
1597 15 1 0 30.0 39.519999999999996 38.2
1598 15 2 0 31.09696551146029 39.519999999999996 38.833333333333336
1599 15 3 -0.6666666666666666 31.09696551146029 41.9 38.833333333333336
1600 15 4 0 32.19393102292058 39.519999999999996 39.46666666666667
1601 15 5 0.6666666666666666 32.19393102292058 37.13999999999999 39.46666666666667
1602 15 1 0 33.29089653438086 39.519999999999996 40.1
1603 15 2 0 34.38786204584115 39.519999999999996 39.46666666666667
1604 15 3 -0.6666666666666666 34.38786204584115 37.13999999999999 39.46666666666667
1605 15 4 0 35.48482755730144 39.519999999999996 38.833333333333336
1606 15 5 0.6666666666666666 35.48482755730144 41.9 38.833333333333336
1607 15 6 0 33.29089653438086 39.519999999999996 44.34
1608 15 1 0 36.58179306876173 39.519999999999996 38.2
1609 15 2 0 37.67875858022202 39.519999999999996 38.833333333333336
1610 15 3 -0.6666666666666666 37.67875858022202 41.9 38.833333333333336
1611 15 4 0 38.775724091682314 39.519999999999996 39.46666666666667
1612 15 5 0.6666666666666666 38.775724091682314 37.13999999999999 39.46666666666667
1613 15 6 0 36.58179306876173 39.519999999999996 33.96
1614 15 1 0 39.872689603142604 39.519999999999996 40.1
1615 15 2 0 40.969655114602894 39.519999999999996 39.46666666666667
1616 15 3 -0.6666666666666666 40.969655114602894 37.13999999999999 39.46666666666667
1617 15 4 0 42.066620626063184 39.519999999999996 38.833333333333336
1618 15 5 0.6666666666666666 42.066620626063184 41.9 38.833333333333336
1619 15 6 0 39.872689603142604 39.519999999999996 44.34
1620 15 1 0 43.16358613752347 39.519999999999996 38.2
1621 15 2 0 44.26055164898376 39.519999999999996 38.833333333333336
1622 15 3 -0.6666666666666666 44.26055164898376 41.9 38.833333333333336
1623 15 4 0 45.35751716044405 39.519999999999996 39.46666666666667
1624 15 5 0.6666666666666666 45.35751716044405 37.13999999999999 39.46666666666667
1625 15 6 0 43.16358613752347 39.519999999999996 33.96
1626 15 1 0 46.45448267190433 39.519999999999996 40.1
1627 15 2 0 47.55144818336462 39.519999999999996 39.46666666666667
1628 15 3 -0.6666666666666666 47.55144818336462 37.13999999999999 39.46666666666667
1629 15 4 0 48.64841369482491 39.519999999999996 38.833333333333336
1630 15 5 0.6666666666666666 48.64841369482491 41.9 38.833333333333336
1631 15 6 0 46.45448267190433 39.519999999999996 44.34
1632 15 1 0 49.7453792062852 39.519999999999996 38.2
1633 15 2 0 50.84234471774549 39.519999999999996 38.833333333333336
1634 15 3 -0.6666666666666666 50.84234471774549 41.9 38.833333333333336
1635 15 4 0 51.93931022920578 39.519999999999996 39.46666666666667
1636 15 5 0.6666666666666666 51.93931022920578 37.13999999999999 39.46666666666667
1637 15 6 0 49.7453792062852 39.519999999999996 33.96
1638 15 1 0 53.03627574066607 39.519999999999996 40.1
1639 15 2 0 54.13324125212636 39.519999999999996 39.46666666666667
1640 15 3 -0.6666666666666666 54.13324125212636 37.13999999999999 39.46666666666667
1641 15 4 0 55.23020676358665 39.519999999999996 38.833333333333336
1642 15 5 0.6666666666666666 55.23020676358665 41.9 38.833333333333336
1643 15 6 0 53.03627574066607 39.519999999999996 44.34
1644 15 1 0 56.327172275046934 39.519999999999996 38.2
1645 15 2 0 57.424137786507224 39.519999999999996 38.833333333333336
1646 15 3 -0.6666666666666666 57.424137786507224 41.9 38.833333333333336
1647 15 4 0 58.521103297967514 39.519999999999996 39.46666666666667
1648 15 5 0.6666666666666666 58.521103297967514 37.13999999999999 39.46666666666667
1649 15 6 0 56.327172275046934 39.519999999999996 33.96
1650 15 1 0 59.6180688094278 39.519999999999996 40.1
1651 15 2 0 60.71503432088809 39.519999999999996 39.46666666666667
1652 15 3 -0.6666666666666666 60.71503432088809 37.13999999999999 39.46666666666667
1653 15 4 0 61.81199983234838 39.519999999999996 38.833333333333336
1654 15 5 0.6666666666666666 61.81199983234838 41.9 38.833333333333336
1655 15 6 0 59.6180688094278 39.519999999999996 44.34
1656 15 1 0 62.90896534380867 39.519999999999996 38.2
1657 15 2 0 64.00593085526896 39.519999999999996 38.833333333333336
1658 15 3 -0.6666666666666666 64.00593085526896 41.9 38.833333333333336
1659 15 4 0 65.10289636672924 39.519999999999996 39.46666666666667
1660 15 5 0.6666666666666666 65.10289636672924 37.13999999999999 39.46666666666667
1661 15 6 0 62.90896534380867 39.519999999999996 33.96
1662 15 1 0 66.19986187818954 39.519999999999996 40.1
1663 15 2 0 67.29682738964982 39.519999999999996 39.46666666666667
1664 15 3 -0.6666666666666666 67.29682738964982 37.13999999999999 39.46666666666667
1665 15 4 0 68.39379290111012 39.519999999999996 38.833333333333336
1666 15 5 0.6666666666666666 68.39379290111012 41.9 38.833333333333336
1667 15 6 0 66.19986187818954 39.519999999999996 44.34
1668 15 1 0 69.4907584125704 39.519999999999996 38.2
1669 15 2 0 70.58772392403068 39.519999999999996 38.833333333333336
1670 15 3 -0.6666666666666666 70.58772392403068 41.9 38.833333333333336
1671 15 4 0 71.68468943549098 39.519999999999996 39.46666666666667
1672 15 5 0.6666666666666666 71.68468943549098 37.13999999999999 39.46666666666667
1673 15 6 0 69.4907584125704 39.519999999999996 33.96
1674 15 1 0 72.78165494695126 39.519999999999996 40.1
1675 15 2 0 73.87862045841155 39.519999999999996 39.46666666666667
1676 15 3 -0.6666666666666666 73.87862045841155 37.13999999999999 39.46666666666667
1677 15 4 0 74.97558596987184 39.519999999999996 38.833333333333336
1678 15 5 0.6666666666666666 74.97558596987184 41.9 38.833333333333336
1679 15 6 0 72.78165494695126 39.519999999999996 44.34
1680 15 1 0 76.07255148133214 39.519999999999996 38.2
1681 15 2 0 77.16951699279242 39.519999999999996 38.833333333333336
1682 15 3 -0.6666666666666666 77.16951699279242 41.9 38.833333333333336
1683 15 4 0 78.26648250425272 39.519999999999996 39.46666666666667
1684 15 5 0.6666666666666666 78.26648250425272 37.13999999999999 39.46666666666667
1685 15 6 0 76.07255148133214 39.519999999999996 33.96
1686 15 1 0 79.363448015713 39.519999999999996 40.1
1687 15 2 0 80.46041352717329 39.519999999999996 39.46666666666667
1688 15 3 -0.6666666666666666 80.46041352717329 37.13999999999999 39.46666666666667
1689 15 4 0 81.55737903863358 39.519999999999996 38.833333333333336
1690 15 5 0.6666666666666666 81.55737903863358 41.9 38.833333333333336
1691 15 6 0 79.363448015713 39.519999999999996 44.34
1692 15 1 0 82.65434455009387 39.519999999999996 38.2
1693 15 2 0 83.75131006155415 39.519999999999996 38.833333333333336
1694 15 3 -0.6666666666666666 83.75131006155415 41.9 38.833333333333336
1695 15 4 0 84.84827557301445 39.519999999999996 39.46666666666667
1696 15 5 0.6666666666666666 84.84827557301445 37.13999999999999 39.46666666666667
1697 15 6 0 82.65434455009387 39.519999999999996 33.96
1698 15 1 0 85.94524108447473 39.519999999999996 40.1
1699 15 2 0 87.04220659593501 39.519999999999996 39.46666666666667
1700 15 3 -0.6666666666666666 87.04220659593501 37.13999999999999 39.46666666666667
1701 15 4 0 88.13917210739531 39.519999999999996 38.833333333333336
1702 15 5 0.6666666666666666 88.13917210739531 41.9 38.833333333333336
1703 15 6 0 85.94524108447473 39.519999999999996 44.34
1704 15 1 0 89.2361376188556 39.519999999999996 38.2
1705 15 2 0 90.33310313031588 39.519999999999996 38.833333333333336
1706 15 3 -0.6666666666666666 90.33310313031588 41.9 38.833333333333336
1707 15 4 0 91.43006864177617 39.519999999999996 39.46666666666667
1708 15 5 0.6666666666666666 91.43006864177617 37.13999999999999 39.46666666666667
1709 15 6 0 89.2361376188556 39.519999999999996 33.96
1710 15 1 0 92.52703415323647 39.519999999999996 40.1
1711 16 1 0 30.0 44.28 38.2
1712 16 2 0 31.09696551146029 44.28 38.833333333333336
1713 16 3 -0.6666666666666666 31.09696551146029 46.660000000000004 38.833333333333336
1714 16 4 0 32.19393102292058 44.28 39.46666666666667
1715 16 5 0.6666666666666666 32.19393102292058 41.9 39.46666666666667
1716 16 1 0 33.29089653438086 44.28 40.1
1717 16 2 0 34.38786204584115 44.28 39.46666666666667
1718 16 3 -0.6666666666666666 34.38786204584115 41.9 39.46666666666667
1719 16 4 0 35.48482755730144 44.28 38.833333333333336
1720 16 5 0.6666666666666666 35.48482755730144 46.660000000000004 38.833333333333336
1721 16 6 0 33.29089653438086 44.28 44.34
1722 16 1 0 36.58179306876173 44.28 38.2
1723 16 2 0 37.67875858022202 44.28 38.833333333333336
1724 16 3 -0.6666666666666666 37.67875858022202 46.660000000000004 38.833333333333336
1725 16 4 0 38.775724091682314 44.28 39.46666666666667
1726 16 5 0.6666666666666666 38.775724091682314 41.9 39.46666666666667
1727 16 6 0 36.58179306876173 44.28 33.96
1728 16 1 0 39.872689603142604 44.28 40.1
1729 16 2 0 40.969655114602894 44.28 39.46666666666667
1730 16 3 -0.6666666666666666 40.969655114602894 41.9 39.46666666666667
1731 16 4 0 42.066620626063184 44.28 38.833333333333336
1732 16 5 0.6666666666666666 42.066620626063184 46.660000000000004 38.833333333333336
1733 16 6 0 39.872689603142604 44.28 44.34
1734 16 1 0 43.16358613752347 44.28 38.2
1735 16 2 0 44.26055164898376 44.28 38.833333333333336
1736 16 3 -0.6666666666666666 44.26055164898376 46.660000000000004 38.833333333333336
1737 16 4 0 45.35751716044405 44.28 39.46666666666667
1738 16 5 0.6666666666666666 45.35751716044405 41.9 39.46666666666667
1739 16 6 0 43.16358613752347 44.28 33.96
1740 16 1 0 46.45448267190433 44.28 40.1
1741 16 2 0 47.55144818336462 44.28 39.46666666666667
1742 16 3 -0.6666666666666666 47.55144818336462 41.9 39.46666666666667
1743 16 4 0 48.64841369482491 44.28 38.833333333333336
1744 16 5 0.6666666666666666 48.64841369482491 46.660000000000004 38.833333333333336
1745 16 6 0 46.45448267190433 44.28 44.34
1746 16 1 0 49.7453792062852 44.28 38.2
1747 16 2 0 50.84234471774549 44.28 38.833333333333336
1748 16 3 -0.6666666666666666 50.84234471774549 46.660000000000004 38.833333333333336
1749 16 4 0 51.93931022920578 44.28 39.46666666666667
1750 16 5 0.6666666666666666 51.93931022920578 41.9 39.46666666666667
1751 16 6 0 49.7453792062852 44.28 33.96
1752 16 1 0 53.03627574066607 44.28 40.1
1753 16 2 0 54.13324125212636 44.28 39.46666666666667
1754 16 3 -0.6666666666666666 54.13324125212636 41.9 39.46666666666667
1755 16 4 0 55.23020676358665 44.28 38.833333333333336
1756 16 5 0.6666666666666666 55.23020676358665 46.660000000000004 38.833333333333336
1757 16 6 0 53.03627574066607 44.28 44.34
1758 16 1 0 56.327172275046934 44.28 38.2
1759 16 2 0 57.424137786507224 44.28 38.833333333333336
1760 16 3 -0.6666666666666666 57.424137786507224 46.660000000000004 38.833333333333336
1761 16 4 0 58.521103297967514 44.28 39.46666666666667
1762 16 5 0.6666666666666666 58.521103297967514 41.9 39.46666666666667
1763 16 6 0 56.327172275046934 44.28 33.96
1764 16 1 0 59.6180688094278 44.28 40.1
1765 16 2 0 60.71503432088809 44.28 39.46666666666667
1766 16 3 -0.6666666666666666 60.71503432088809 41.9 39.46666666666667
1767 16 4 0 61.81199983234838 44.28 38.833333333333336
1768 16 5 0.6666666666666666 61.81199983234838 46.660000000000004 38.833333333333336
1769 16 6 0 59.6180688094278 44.28 44.34
1770 16 1 0 62.90896534380867 44.28 38.2
1771 16 2 0 64.00593085526896 44.28 38.833333333333336
1772 16 3 -0.6666666666666666 64.00593085526896 46.660000000000004 38.833333333333336
1773 16 4 0 65.10289636672924 44.28 39.46666666666667
1774 16 5 0.6666666666666666 65.10289636672924 41.9 39.46666666666667
1775 16 6 0 62.90896534380867 44.28 33.96
1776 16 1 0 66.19986187818954 44.28 40.1
1777 16 2 0 67.29682738964982 44.28 39.46666666666667
1778 16 3 -0.6666666666666666 67.29682738964982 41.9 39.46666666666667
1779 16 4 0 68.39379290111012 44.28 38.833333333333336
1780 16 5 0.6666666666666666 68.39379290111012 46.660000000000004 38.833333333333336
1781 16 6 0 66.19986187818954 44.28 44.34
1782 16 1 0 69.4907584125704 44.28 38.2
1783 16 2 0 70.58772392403068 44.28 38.833333333333336
1784 16 3 -0.6666666666666666 70.58772392403068 46.660000000000004 38.833333333333336
1785 16 4 0 71.68468943549098 44.28 39.46666666666667
1786 16 5 0.6666666666666666 71.68468943549098 41.9 39.46666666666667
1787 16 6 0 69.4907584125704 44.28 33.96
1788 16 1 0 72.78165494695126 44.28 40.1
1789 16 2 0 73.87862045841155 44.28 39.46666666666667
1790 16 3 -0.6666666666666666 73.87862045841155 41.9 39.46666666666667
1791 16 4 0 74.97558596987184 44.28 38.833333333333336
1792 16 5 0.6666666666666666 74.97558596987184 46.660000000000004 38.833333333333336
1793 16 6 0 72.78165494695126 44.28 44.34
1794 16 1 0 76.07255148133214 44.28 38.2
1795 16 2 0 77.16951699279242 44.28 38.833333333333336
1796 16 3 -0.6666666666666666 77.16951699279242 46.660000000000004 38.833333333333336
1797 16 4 0 78.26648250425272 44.28 39.46666666666667
1798 16 5 0.6666666666666666 78.26648250425272 41.9 39.46666666666667
1799 16 6 0 76.07255148133214 44.28 33.96
1800 16 1 0 79.363448015713 44.28 40.1
1801 16 2 0 80.46041352717329 44.28 39.46666666666667
1802 16 3 -0.6666666666666666 80.46041352717329 41.9 39.46666666666667
1803 16 4 0 81.55737903863358 44.28 38.833333333333336
1804 16 5 0.6666666666666666 81.55737903863358 46.660000000000004 38.833333333333336
1805 16 6 0 79.363448015713 44.28 44.34
1806 16 1 0 82.65434455009387 44.28 38.2
1807 16 2 0 83.75131006155415 44.28 38.833333333333336
1808 16 3 -0.6666666666666666 83.75131006155415 46.660000000000004 38.833333333333336
1809 16 4 0 84.84827557301445 44.28 39.46666666666667
1810 16 5 0.6666666666666666 84.84827557301445 41.9 39.46666666666667
1811 16 6 0 82.65434455009387 44.28 33.96
1812 16 1 0 85.94524108447473 44.28 40.1
1813 16 2 0 87.04220659593501 44.28 39.46666666666667
1814 16 3 -0.6666666666666666 87.04220659593501 41.9 39.46666666666667
1815 16 4 0 88.13917210739531 44.28 38.833333333333336
1816 16 5 0.6666666666666666 88.13917210739531 46.660000000000004 38.833333333333336
1817 16 6 0 85.94524108447473 44.28 44.34
1818 16 1 0 89.2361376188556 44.28 38.2
1819 16 2 0 90.33310313031588 44.28 38.833333333333336
1820 16 3 -0.6666666666666666 90.33310313031588 46.660000000000004 38.833333333333336
1821 16 4 0 91.43006864177617 44.28 39.46666666666667
1822 16 5 0.6666666666666666 91.43006864177617 41.9 39.46666666666667
1823 16 6 0 89.2361376188556 44.28 33.96
1824 16 1 0 92.52703415323647 44.28 40.1
1825 17 1 0 30.0 49.04 38.2
1826 17 2 0 31.09696551146029 49.04 38.833333333333336
1827 17 3 -0.6666666666666666 31.09696551146029 51.42 38.833333333333336
1828 17 4 0 32.19393102292058 49.04 39.46666666666667
1829 17 5 0.6666666666666666 32.19393102292058 46.66 39.46666666666667
1830 17 1 0 33.29089653438086 49.04 40.1
1831 17 2 0 34.38786204584115 49.04 39.46666666666667
1832 17 3 -0.6666666666666666 34.38786204584115 46.66 39.46666666666667
1833 17 4 0 35.48482755730144 49.04 38.833333333333336
1834 17 5 0.6666666666666666 35.48482755730144 51.42 38.833333333333336
1835 17 6 0 33.29089653438086 49.04 44.34
1836 17 1 0 36.58179306876173 49.04 38.2
1837 17 2 0 37.67875858022202 49.04 38.833333333333336
1838 17 3 -0.6666666666666666 37.67875858022202 51.42 38.833333333333336
1839 17 4 0 38.775724091682314 49.04 39.46666666666667
1840 17 5 0.6666666666666666 38.775724091682314 46.66 39.46666666666667
1841 17 6 0 36.58179306876173 49.04 33.96
1842 17 1 0 39.872689603142604 49.04 40.1
1843 17 2 0 40.969655114602894 49.04 39.46666666666667
1844 17 3 -0.6666666666666666 40.969655114602894 46.66 39.46666666666667
1845 17 4 0 42.066620626063184 49.04 38.833333333333336
1846 17 5 0.6666666666666666 42.066620626063184 51.42 38.833333333333336
1847 17 6 0 39.872689603142604 49.04 44.34
1848 17 1 0 43.16358613752347 49.04 38.2
1849 17 2 0 44.26055164898376 49.04 38.833333333333336
1850 17 3 -0.6666666666666666 44.26055164898376 51.42 38.833333333333336
1851 17 4 0 45.35751716044405 49.04 39.46666666666667
1852 17 5 0.6666666666666666 45.35751716044405 46.66 39.46666666666667
1853 17 6 0 43.16358613752347 49.04 33.96
1854 17 1 0 46.45448267190433 49.04 40.1
1855 17 2 0 47.55144818336462 49.04 39.46666666666667
1856 17 3 -0.6666666666666666 47.55144818336462 46.66 39.46666666666667
1857 17 4 0 48.64841369482491 49.04 38.833333333333336
1858 17 5 0.6666666666666666 48.64841369482491 51.42 38.833333333333336
1859 17 6 0 46.45448267190433 49.04 44.34
1860 17 1 0 49.7453792062852 49.04 38.2
1861 17 2 0 50.84234471774549 49.04 38.833333333333336
1862 17 3 -0.6666666666666666 50.84234471774549 51.42 38.833333333333336
1863 17 4 0 51.93931022920578 49.04 39.46666666666667
1864 17 5 0.6666666666666666 51.93931022920578 46.66 39.46666666666667
1865 17 6 0 49.7453792062852 49.04 33.96
1866 17 1 0 53.03627574066607 49.04 40.1
1867 17 2 0 54.13324125212636 49.04 39.46666666666667
1868 17 3 -0.6666666666666666 54.13324125212636 46.66 39.46666666666667
1869 17 4 0 55.23020676358665 49.04 38.833333333333336
1870 17 5 0.6666666666666666 55.23020676358665 51.42 38.833333333333336
1871 17 6 0 53.03627574066607 49.04 44.34
1872 17 1 0 56.327172275046934 49.04 38.2
1873 17 2 0 57.424137786507224 49.04 38.833333333333336
1874 17 3 -0.6666666666666666 57.424137786507224 51.42 38.833333333333336
1875 17 4 0 58.521103297967514 49.04 39.46666666666667
1876 17 5 0.6666666666666666 58.521103297967514 46.66 39.46666666666667
1877 17 6 0 56.327172275046934 49.04 33.96
1878 17 1 0 59.6180688094278 49.04 40.1
1879 17 2 0 60.71503432088809 49.04 39.46666666666667
1880 17 3 -0.6666666666666666 60.71503432088809 46.66 39.46666666666667
1881 17 4 0 61.81199983234838 49.04 38.833333333333336
1882 17 5 0.6666666666666666 61.81199983234838 51.42 38.833333333333336
1883 17 6 0 59.6180688094278 49.04 44.34
1884 17 1 0 62.90896534380867 49.04 38.2
1885 17 2 0 64.00593085526896 49.04 38.833333333333336
1886 17 3 -0.6666666666666666 64.00593085526896 51.42 38.833333333333336
1887 17 4 0 65.10289636672924 49.04 39.46666666666667
1888 17 5 0.6666666666666666 65.10289636672924 46.66 39.46666666666667
1889 17 6 0 62.90896534380867 49.04 33.96
1890 17 1 0 66.19986187818954 49.04 40.1
1891 17 2 0 67.29682738964982 49.04 39.46666666666667
1892 17 3 -0.6666666666666666 67.29682738964982 46.66 39.46666666666667
1893 17 4 0 68.39379290111012 49.04 38.833333333333336
1894 17 5 0.6666666666666666 68.39379290111012 51.42 38.833333333333336
1895 17 6 0 66.19986187818954 49.04 44.34
1896 17 1 0 69.4907584125704 49.04 38.2
1897 17 2 0 70.58772392403068 49.04 38.833333333333336
1898 17 3 -0.6666666666666666 70.58772392403068 51.42 38.833333333333336
1899 17 4 0 71.68468943549098 49.04 39.46666666666667
1900 17 5 0.6666666666666666 71.68468943549098 46.66 39.46666666666667
1901 17 6 0 69.4907584125704 49.04 33.96
1902 17 1 0 72.78165494695126 49.04 40.1
1903 17 2 0 73.87862045841155 49.04 39.46666666666667
1904 17 3 -0.6666666666666666 73.87862045841155 46.66 39.46666666666667
1905 17 4 0 74.97558596987184 49.04 38.833333333333336
1906 17 5 0.6666666666666666 74.97558596987184 51.42 38.833333333333336
1907 17 6 0 72.78165494695126 49.04 44.34
1908 17 1 0 76.07255148133214 49.04 38.2
1909 17 2 0 77.16951699279242 49.04 38.833333333333336
1910 17 3 -0.6666666666666666 77.16951699279242 51.42 38.833333333333336
1911 17 4 0 78.26648250425272 49.04 39.46666666666667
1912 17 5 0.6666666666666666 78.26648250425272 46.66 39.46666666666667
1913 17 6 0 76.07255148133214 49.04 33.96
1914 17 1 0 79.363448015713 49.04 40.1
1915 17 2 0 80.46041352717329 49.04 39.46666666666667
1916 17 3 -0.6666666666666666 80.46041352717329 46.66 39.46666666666667
1917 17 4 0 81.55737903863358 49.04 38.833333333333336
1918 17 5 0.6666666666666666 81.55737903863358 51.42 38.833333333333336
1919 17 6 0 79.363448015713 49.04 44.34
1920 17 1 0 82.65434455009387 49.04 38.2
1921 17 2 0 83.75131006155415 49.04 38.833333333333336
1922 17 3 -0.6666666666666666 83.75131006155415 51.42 38.833333333333336
1923 17 4 0 84.84827557301445 49.04 39.46666666666667
1924 17 5 0.6666666666666666 84.84827557301445 46.66 39.46666666666667
1925 17 6 0 82.65434455009387 49.04 33.96
1926 17 1 0 85.94524108447473 49.04 40.1
1927 17 2 0 87.04220659593501 49.04 39.46666666666667
1928 17 3 -0.6666666666666666 87.04220659593501 46.66 39.46666666666667
1929 17 4 0 88.13917210739531 49.04 38.833333333333336
1930 17 5 0.6666666666666666 88.13917210739531 51.42 38.833333333333336
1931 17 6 0 85.94524108447473 49.04 44.34
1932 17 1 0 89.2361376188556 49.04 38.2
1933 17 2 0 90.33310313031588 49.04 38.833333333333336
1934 17 3 -0.6666666666666666 90.33310313031588 51.42 38.833333333333336
1935 17 4 0 91.43006864177617 49.04 39.46666666666667
1936 17 5 0.6666666666666666 91.43006864177617 46.66 39.46666666666667
1937 17 6 0 89.2361376188556 49.04 33.96
1938 17 1 0 92.52703415323647 49.04 40.1
1939 18 1 0 30.0 53.8 38.2
1940 18 2 0 31.09696551146029 53.8 38.833333333333336
1941 18 3 -0.6666666666666666 31.09696551146029 56.18 38.833333333333336
1942 18 4 0 32.19393102292058 53.8 39.46666666666667
1943 18 5 0.6666666666666666 32.19393102292058 51.419999999999995 39.46666666666667
1944 18 1 0 33.29089653438086 53.8 40.1
1945 18 2 0 34.38786204584115 53.8 39.46666666666667
1946 18 3 -0.6666666666666666 34.38786204584115 51.419999999999995 39.46666666666667
1947 18 4 0 35.48482755730144 53.8 38.833333333333336
1948 18 5 0.6666666666666666 35.48482755730144 56.18 38.833333333333336
1949 18 6 0 33.29089653438086 53.8 44.34
1950 18 1 0 36.58179306876173 53.8 38.2
1951 18 2 0 37.67875858022202 53.8 38.833333333333336
1952 18 3 -0.6666666666666666 37.67875858022202 56.18 38.833333333333336
1953 18 4 0 38.775724091682314 53.8 39.46666666666667
1954 18 5 0.6666666666666666 38.775724091682314 51.419999999999995 39.46666666666667
1955 18 6 0 36.58179306876173 53.8 33.96
1956 18 1 0 39.872689603142604 53.8 40.1
1957 18 2 0 40.969655114602894 53.8 39.46666666666667
1958 18 3 -0.6666666666666666 40.969655114602894 51.419999999999995 39.46666666666667
1959 18 4 0 42.066620626063184 53.8 38.833333333333336
1960 18 5 0.6666666666666666 42.066620626063184 56.18 38.833333333333336
1961 18 6 0 39.872689603142604 53.8 44.34
1962 18 1 0 43.16358613752347 53.8 38.2
1963 18 2 0 44.26055164898376 53.8 38.833333333333336
1964 18 3 -0.6666666666666666 44.26055164898376 56.18 38.833333333333336
1965 18 4 0 45.35751716044405 53.8 39.46666666666667
1966 18 5 0.6666666666666666 45.35751716044405 51.419999999999995 39.46666666666667
1967 18 6 0 43.16358613752347 53.8 33.96
1968 18 1 0 46.45448267190433 53.8 40.1
1969 18 2 0 47.55144818336462 53.8 39.46666666666667
1970 18 3 -0.6666666666666666 47.55144818336462 51.419999999999995 39.46666666666667
1971 18 4 0 48.64841369482491 53.8 38.833333333333336
1972 18 5 0.6666666666666666 48.64841369482491 56.18 38.833333333333336
1973 18 6 0 46.45448267190433 53.8 44.34
1974 18 1 0 49.7453792062852 53.8 38.2
1975 18 2 0 50.84234471774549 53.8 38.833333333333336
1976 18 3 -0.6666666666666666 50.84234471774549 56.18 38.833333333333336
1977 18 4 0 51.93931022920578 53.8 39.46666666666667
1978 18 5 0.6666666666666666 51.93931022920578 51.419999999999995 39.46666666666667
1979 18 6 0 49.7453792062852 53.8 33.96
1980 18 1 0 53.03627574066607 53.8 40.1
1981 18 2 0 54.13324125212636 53.8 39.46666666666667
1982 18 3 -0.6666666666666666 54.13324125212636 51.419999999999995 39.46666666666667
1983 18 4 0 55.23020676358665 53.8 38.833333333333336
1984 18 5 0.6666666666666666 55.23020676358665 56.18 38.833333333333336
1985 18 6 0 53.03627574066607 53.8 44.34
1986 18 1 0 56.327172275046934 53.8 38.2
1987 18 2 0 57.424137786507224 53.8 38.833333333333336
1988 18 3 -0.6666666666666666 57.424137786507224 56.18 38.833333333333336
1989 18 4 0 58.521103297967514 53.8 39.46666666666667
1990 18 5 0.6666666666666666 58.521103297967514 51.419999999999995 39.46666666666667
1991 18 6 0 56.327172275046934 53.8 33.96
1992 18 1 0 59.6180688094278 53.8 40.1
1993 18 2 0 60.71503432088809 53.8 39.46666666666667
1994 18 3 -0.6666666666666666 60.71503432088809 51.419999999999995 39.46666666666667
1995 18 4 0 61.81199983234838 53.8 38.833333333333336
1996 18 5 0.6666666666666666 61.81199983234838 56.18 38.833333333333336
1997 18 6 0 59.6180688094278 53.8 44.34
1998 18 1 0 62.90896534380867 53.8 38.2
1999 18 2 0 64.00593085526896 53.8 38.833333333333336
2000 18 3 -0.6666666666666666 64.00593085526896 56.18 38.833333333333336
2001 18 4 0 65.10289636672924 53.8 39.46666666666667
2002 18 5 0.6666666666666666 65.10289636672924 51.419999999999995 39.46666666666667
2003 18 6 0 62.90896534380867 53.8 33.96
2004 18 1 0 66.19986187818954 53.8 40.1
2005 18 2 0 67.29682738964982 53.8 39.46666666666667
2006 18 3 -0.6666666666666666 67.29682738964982 51.419999999999995 39.46666666666667
2007 18 4 0 68.39379290111012 53.8 38.833333333333336
2008 18 5 0.6666666666666666 68.39379290111012 56.18 38.833333333333336
2009 18 6 0 66.19986187818954 53.8 44.34
2010 18 1 0 69.4907584125704 53.8 38.2
2011 18 2 0 70.58772392403068 53.8 38.833333333333336
2012 18 3 -0.6666666666666666 70.58772392403068 56.18 38.833333333333336
2013 18 4 0 71.68468943549098 53.8 39.46666666666667
2014 18 5 0.6666666666666666 71.68468943549098 51.419999999999995 39.46666666666667
2015 18 6 0 69.4907584125704 53.8 33.96
2016 18 1 0 72.78165494695126 53.8 40.1
2017 18 2 0 73.87862045841155 53.8 39.46666666666667
2018 18 3 -0.6666666666666666 73.87862045841155 51.419999999999995 39.46666666666667
2019 18 4 0 74.97558596987184 53.8 38.833333333333336
2020 18 5 0.6666666666666666 74.97558596987184 56.18 38.833333333333336
2021 18 6 0 72.78165494695126 53.8 44.34
2022 18 1 0 76.07255148133214 53.8 38.2
2023 18 2 0 77.16951699279242 53.8 38.833333333333336
2024 18 3 -0.6666666666666666 77.16951699279242 56.18 38.833333333333336
2025 18 4 0 78.26648250425272 53.8 39.46666666666667
2026 18 5 0.6666666666666666 78.26648250425272 51.419999999999995 39.46666666666667
2027 18 6 0 76.07255148133214 53.8 33.96
2028 18 1 0 79.363448015713 53.8 40.1
2029 18 2 0 80.46041352717329 53.8 39.46666666666667
2030 18 3 -0.6666666666666666 80.46041352717329 51.419999999999995 39.46666666666667
2031 18 4 0 81.55737903863358 53.8 38.833333333333336
2032 18 5 0.6666666666666666 81.55737903863358 56.18 38.833333333333336
2033 18 6 0 79.363448015713 53.8 44.34
2034 18 1 0 82.65434455009387 53.8 38.2
2035 18 2 0 83.75131006155415 53.8 38.833333333333336
2036 18 3 -0.6666666666666666 83.75131006155415 56.18 38.833333333333336
2037 18 4 0 84.84827557301445 53.8 39.46666666666667
2038 18 5 0.6666666666666666 84.84827557301445 51.419999999999995 39.46666666666667
2039 18 6 0 82.65434455009387 53.8 33.96
2040 18 1 0 85.94524108447473 53.8 40.1
2041 18 2 0 87.04220659593501 53.8 39.46666666666667
2042 18 3 -0.6666666666666666 87.04220659593501 51.419999999999995 39.46666666666667
2043 18 4 0 88.13917210739531 53.8 38.833333333333336
2044 18 5 0.6666666666666666 88.13917210739531 56.18 38.833333333333336
2045 18 6 0 85.94524108447473 53.8 44.34
2046 18 1 0 89.2361376188556 53.8 38.2
2047 18 2 0 90.33310313031588 53.8 38.833333333333336
2048 18 3 -0.6666666666666666 90.33310313031588 56.18 38.833333333333336
2049 18 4 0 91.43006864177617 53.8 39.46666666666667
2050 18 5 0.6666666666666666 91.43006864177617 51.419999999999995 39.46666666666667
2051 18 6 0 89.2361376188556 53.8 33.96
2052 18 1 0 92.52703415323647 53.8 40.1
2053 19 1 0 30.0 58.56 38.2
2054 19 2 0 31.09696551146029 58.56 38.833333333333336
2055 19 3 -0.6666666666666666 31.09696551146029 60.940000000000005 38.833333333333336
2056 19 4 0 32.19393102292058 58.56 39.46666666666667
2057 19 5 0.6666666666666666 32.19393102292058 56.18 39.46666666666667
2058 19 1 0 33.29089653438086 58.56 40.1
2059 19 2 0 34.38786204584115 58.56 39.46666666666667
2060 19 3 -0.6666666666666666 34.38786204584115 56.18 39.46666666666667
2061 19 4 0 35.48482755730144 58.56 38.833333333333336
2062 19 5 0.6666666666666666 35.48482755730144 60.940000000000005 38.833333333333336
2063 19 6 0 33.29089653438086 58.56 44.34
2064 19 1 0 36.58179306876173 58.56 38.2
2065 19 2 0 37.67875858022202 58.56 38.833333333333336
2066 19 3 -0.6666666666666666 37.67875858022202 60.940000000000005 38.833333333333336
2067 19 4 0 38.775724091682314 58.56 39.46666666666667
2068 19 5 0.6666666666666666 38.775724091682314 56.18 39.46666666666667
2069 19 6 0 36.58179306876173 58.56 33.96
2070 19 1 0 39.872689603142604 58.56 40.1
2071 19 2 0 40.969655114602894 58.56 39.46666666666667
2072 19 3 -0.6666666666666666 40.969655114602894 56.18 39.46666666666667
2073 19 4 0 42.066620626063184 58.56 38.833333333333336
2074 19 5 0.6666666666666666 42.066620626063184 60.940000000000005 38.833333333333336
2075 19 6 0 39.872689603142604 58.56 44.34
2076 19 1 0 43.16358613752347 58.56 38.2
2077 19 2 0 44.26055164898376 58.56 38.833333333333336
2078 19 3 -0.6666666666666666 44.26055164898376 60.940000000000005 38.833333333333336
2079 19 4 0 45.35751716044405 58.56 39.46666666666667
2080 19 5 0.6666666666666666 45.35751716044405 56.18 39.46666666666667
2081 19 6 0 43.16358613752347 58.56 33.96
2082 19 1 0 46.45448267190433 58.56 40.1
2083 19 2 0 47.55144818336462 58.56 39.46666666666667
2084 19 3 -0.6666666666666666 47.55144818336462 56.18 39.46666666666667
2085 19 4 0 48.64841369482491 58.56 38.833333333333336
2086 19 5 0.6666666666666666 48.64841369482491 60.940000000000005 38.833333333333336
2087 19 6 0 46.45448267190433 58.56 44.34
2088 19 1 0 49.7453792062852 58.56 38.2
2089 19 2 0 50.84234471774549 58.56 38.833333333333336
2090 19 3 -0.6666666666666666 50.84234471774549 60.940000000000005 38.833333333333336
2091 19 4 0 51.93931022920578 58.56 39.46666666666667
2092 19 5 0.6666666666666666 51.93931022920578 56.18 39.46666666666667
2093 19 6 0 49.7453792062852 58.56 33.96
2094 19 1 0 53.03627574066607 58.56 40.1
2095 19 2 0 54.13324125212636 58.56 39.46666666666667
2096 19 3 -0.6666666666666666 54.13324125212636 56.18 39.46666666666667
2097 19 4 0 55.23020676358665 58.56 38.833333333333336
2098 19 5 0.6666666666666666 55.23020676358665 60.940000000000005 38.833333333333336
2099 19 6 0 53.03627574066607 58.56 44.34
2100 19 1 0 56.327172275046934 58.56 38.2
2101 19 2 0 57.424137786507224 58.56 38.833333333333336
2102 19 3 -0.6666666666666666 57.424137786507224 60.940000000000005 38.833333333333336
2103 19 4 0 58.521103297967514 58.56 39.46666666666667
2104 19 5 0.6666666666666666 58.521103297967514 56.18 39.46666666666667
2105 19 6 0 56.327172275046934 58.56 33.96
2106 19 1 0 59.6180688094278 58.56 40.1
2107 19 2 0 60.71503432088809 58.56 39.46666666666667
2108 19 3 -0.6666666666666666 60.71503432088809 56.18 39.46666666666667
2109 19 4 0 61.81199983234838 58.56 38.833333333333336
2110 19 5 0.6666666666666666 61.81199983234838 60.940000000000005 38.833333333333336
2111 19 6 0 59.6180688094278 58.56 44.34
2112 19 1 0 62.90896534380867 58.56 38.2
2113 19 2 0 64.00593085526896 58.56 38.833333333333336
2114 19 3 -0.6666666666666666 64.00593085526896 60.940000000000005 38.833333333333336
2115 19 4 0 65.10289636672924 58.56 39.46666666666667
2116 19 5 0.6666666666666666 65.10289636672924 56.18 39.46666666666667
2117 19 6 0 62.90896534380867 58.56 33.96
2118 19 1 0 66.19986187818954 58.56 40.1
2119 19 2 0 67.29682738964982 58.56 39.46666666666667
2120 19 3 -0.6666666666666666 67.29682738964982 56.18 39.46666666666667
2121 19 4 0 68.39379290111012 58.56 38.833333333333336
2122 19 5 0.6666666666666666 68.39379290111012 60.940000000000005 38.833333333333336
2123 19 6 0 66.19986187818954 58.56 44.34
2124 19 1 0 69.4907584125704 58.56 38.2
2125 19 2 0 70.58772392403068 58.56 38.833333333333336
2126 19 3 -0.6666666666666666 70.58772392403068 60.940000000000005 38.833333333333336
2127 19 4 0 71.68468943549098 58.56 39.46666666666667
2128 19 5 0.6666666666666666 71.68468943549098 56.18 39.46666666666667
2129 19 6 0 69.4907584125704 58.56 33.96
2130 19 1 0 72.78165494695126 58.56 40.1
2131 19 2 0 73.87862045841155 58.56 39.46666666666667
2132 19 3 -0.6666666666666666 73.87862045841155 56.18 39.46666666666667
2133 19 4 0 74.97558596987184 58.56 38.833333333333336
2134 19 5 0.6666666666666666 74.97558596987184 60.940000000000005 38.833333333333336
2135 19 6 0 72.78165494695126 58.56 44.34
2136 19 1 0 76.07255148133214 58.56 38.2
2137 19 2 0 77.16951699279242 58.56 38.833333333333336
2138 19 3 -0.6666666666666666 77.16951699279242 60.940000000000005 38.833333333333336
2139 19 4 0 78.26648250425272 58.56 39.46666666666667
2140 19 5 0.6666666666666666 78.26648250425272 56.18 39.46666666666667
2141 19 6 0 76.07255148133214 58.56 33.96
2142 19 1 0 79.363448015713 58.56 40.1
2143 19 2 0 80.46041352717329 58.56 39.46666666666667
2144 19 3 -0.6666666666666666 80.46041352717329 56.18 39.46666666666667
2145 19 4 0 81.55737903863358 58.56 38.833333333333336
2146 19 5 0.6666666666666666 81.55737903863358 60.940000000000005 38.833333333333336
2147 19 6 0 79.363448015713 58.56 44.34
2148 19 1 0 82.65434455009387 58.56 38.2
2149 19 2 0 83.75131006155415 58.56 38.833333333333336
2150 19 3 -0.6666666666666666 83.75131006155415 60.940000000000005 38.833333333333336
2151 19 4 0 84.84827557301445 58.56 39.46666666666667
2152 19 5 0.6666666666666666 84.84827557301445 56.18 39.46666666666667
2153 19 6 0 82.65434455009387 58.56 33.96
2154 19 1 0 85.94524108447473 58.56 40.1
2155 19 2 0 87.04220659593501 58.56 39.46666666666667
2156 19 3 -0.6666666666666666 87.04220659593501 56.18 39.46666666666667
2157 19 4 0 88.13917210739531 58.56 38.833333333333336
2158 19 5 0.6666666666666666 88.13917210739531 60.940000000000005 38.833333333333336
2159 19 6 0 85.94524108447473 58.56 44.34
2160 19 1 0 89.2361376188556 58.56 38.2
2161 19 2 0 90.33310313031588 58.56 38.833333333333336
2162 19 3 -0.6666666666666666 90.33310313031588 60.940000000000005 38.833333333333336
2163 19 4 0 91.43006864177617 58.56 39.46666666666667
2164 19 5 0.6666666666666666 91.43006864177617 56.18 39.46666666666667
2165 19 6 0 89.2361376188556 58.56 33.96
2166 19 1 0 92.52703415323647 58.56 40.1
2167 20 1 0 30.0 63.32 38.2
2168 20 2 0 31.09696551146029 63.32 38.833333333333336
2169 20 3 -0.6666666666666666 31.09696551146029 65.7 38.833333333333336
2170 20 4 0 32.19393102292058 63.32 39.46666666666667
2171 20 5 0.6666666666666666 32.19393102292058 60.94 39.46666666666667
2172 20 1 0 33.29089653438086 63.32 40.1
2173 20 2 0 34.38786204584115 63.32 39.46666666666667
2174 20 3 -0.6666666666666666 34.38786204584115 60.94 39.46666666666667
2175 20 4 0 35.48482755730144 63.32 38.833333333333336
2176 20 5 0.6666666666666666 35.48482755730144 65.7 38.833333333333336
2177 20 6 0 33.29089653438086 63.32 44.34
2178 20 1 0 36.58179306876173 63.32 38.2
2179 20 2 0 37.67875858022202 63.32 38.833333333333336
2180 20 3 -0.6666666666666666 37.67875858022202 65.7 38.833333333333336
2181 20 4 0 38.775724091682314 63.32 39.46666666666667
2182 20 5 0.6666666666666666 38.775724091682314 60.94 39.46666666666667
2183 20 6 0 36.58179306876173 63.32 33.96
2184 20 1 0 39.872689603142604 63.32 40.1
2185 20 2 0 40.969655114602894 63.32 39.46666666666667
2186 20 3 -0.6666666666666666 40.969655114602894 60.94 39.46666666666667
2187 20 4 0 42.066620626063184 63.32 38.833333333333336
2188 20 5 0.6666666666666666 42.066620626063184 65.7 38.833333333333336
2189 20 6 0 39.872689603142604 63.32 44.34
2190 20 1 0 43.16358613752347 63.32 38.2
2191 20 2 0 44.26055164898376 63.32 38.833333333333336
2192 20 3 -0.6666666666666666 44.26055164898376 65.7 38.833333333333336
2193 20 4 0 45.35751716044405 63.32 39.46666666666667
2194 20 5 0.6666666666666666 45.35751716044405 60.94 39.46666666666667
2195 20 6 0 43.16358613752347 63.32 33.96
2196 20 1 0 46.45448267190433 63.32 40.1
2197 20 2 0 47.55144818336462 63.32 39.46666666666667
2198 20 3 -0.6666666666666666 47.55144818336462 60.94 39.46666666666667
2199 20 4 0 48.64841369482491 63.32 38.833333333333336
2200 20 5 0.6666666666666666 48.64841369482491 65.7 38.833333333333336
2201 20 6 0 46.45448267190433 63.32 44.34
2202 20 1 0 49.7453792062852 63.32 38.2
2203 20 2 0 50.84234471774549 63.32 38.833333333333336
2204 20 3 -0.6666666666666666 50.84234471774549 65.7 38.833333333333336
2205 20 4 0 51.93931022920578 63.32 39.46666666666667
2206 20 5 0.6666666666666666 51.93931022920578 60.94 39.46666666666667
2207 20 6 0 49.7453792062852 63.32 33.96
2208 20 1 0 53.03627574066607 63.32 40.1
2209 20 2 0 54.13324125212636 63.32 39.46666666666667
2210 20 3 -0.6666666666666666 54.13324125212636 60.94 39.46666666666667
2211 20 4 0 55.23020676358665 63.32 38.833333333333336
2212 20 5 0.6666666666666666 55.23020676358665 65.7 38.833333333333336
2213 20 6 0 53.03627574066607 63.32 44.34
2214 20 1 0 56.327172275046934 63.32 38.2
2215 20 2 0 57.424137786507224 63.32 38.833333333333336
2216 20 3 -0.6666666666666666 57.424137786507224 65.7 38.833333333333336
2217 20 4 0 58.521103297967514 63.32 39.46666666666667
2218 20 5 0.6666666666666666 58.521103297967514 60.94 39.46666666666667
2219 20 6 0 56.327172275046934 63.32 33.96
2220 20 1 0 59.6180688094278 63.32 40.1
2221 20 2 0 60.71503432088809 63.32 39.46666666666667
2222 20 3 -0.6666666666666666 60.71503432088809 60.94 39.46666666666667
2223 20 4 0 61.81199983234838 63.32 38.833333333333336
2224 20 5 0.6666666666666666 61.81199983234838 65.7 38.833333333333336
2225 20 6 0 59.6180688094278 63.32 44.34
2226 20 1 0 62.90896534380867 63.32 38.2
2227 20 2 0 64.00593085526896 63.32 38.833333333333336
2228 20 3 -0.6666666666666666 64.00593085526896 65.7 38.833333333333336
2229 20 4 0 65.10289636672924 63.32 39.46666666666667
2230 20 5 0.6666666666666666 65.10289636672924 60.94 39.46666666666667
2231 20 6 0 62.90896534380867 63.32 33.96
2232 20 1 0 66.19986187818954 63.32 40.1
2233 20 2 0 67.29682738964982 63.32 39.46666666666667
2234 20 3 -0.6666666666666666 67.29682738964982 60.94 39.46666666666667
2235 20 4 0 68.39379290111012 63.32 38.833333333333336
2236 20 5 0.6666666666666666 68.39379290111012 65.7 38.833333333333336
2237 20 6 0 66.19986187818954 63.32 44.34
2238 20 1 0 69.4907584125704 63.32 38.2
2239 20 2 0 70.58772392403068 63.32 38.833333333333336
2240 20 3 -0.6666666666666666 70.58772392403068 65.7 38.833333333333336
2241 20 4 0 71.68468943549098 63.32 39.46666666666667
2242 20 5 0.6666666666666666 71.68468943549098 60.94 39.46666666666667
2243 20 6 0 69.4907584125704 63.32 33.96
2244 20 1 0 72.78165494695126 63.32 40.1
2245 20 2 0 73.87862045841155 63.32 39.46666666666667
2246 20 3 -0.6666666666666666 73.87862045841155 60.94 39.46666666666667
2247 20 4 0 74.97558596987184 63.32 38.833333333333336
2248 20 5 0.6666666666666666 74.97558596987184 65.7 38.833333333333336
2249 20 6 0 72.78165494695126 63.32 44.34
2250 20 1 0 76.07255148133214 63.32 38.2
2251 20 2 0 77.16951699279242 63.32 38.833333333333336
2252 20 3 -0.6666666666666666 77.16951699279242 65.7 38.833333333333336
2253 20 4 0 78.26648250425272 63.32 39.46666666666667
2254 20 5 0.6666666666666666 78.26648250425272 60.94 39.46666666666667
2255 20 6 0 76.07255148133214 63.32 33.96
2256 20 1 0 79.363448015713 63.32 40.1
2257 20 2 0 80.46041352717329 63.32 39.46666666666667
2258 20 3 -0.6666666666666666 80.46041352717329 60.94 39.46666666666667
2259 20 4 0 81.55737903863358 63.32 38.833333333333336
2260 20 5 0.6666666666666666 81.55737903863358 65.7 38.833333333333336
2261 20 6 0 79.363448015713 63.32 44.34
2262 20 1 0 82.65434455009387 63.32 38.2
2263 20 2 0 83.75131006155415 63.32 38.833333333333336
2264 20 3 -0.6666666666666666 83.75131006155415 65.7 38.833333333333336
2265 20 4 0 84.84827557301445 63.32 39.46666666666667
2266 20 5 0.6666666666666666 84.84827557301445 60.94 39.46666666666667
2267 20 6 0 82.65434455009387 63.32 33.96
2268 20 1 0 85.94524108447473 63.32 40.1
2269 20 2 0 87.04220659593501 63.32 39.46666666666667
2270 20 3 -0.6666666666666666 87.04220659593501 60.94 39.46666666666667
2271 20 4 0 88.13917210739531 63.32 38.833333333333336
2272 20 5 0.6666666666666666 88.13917210739531 65.7 38.833333333333336
2273 20 6 0 85.94524108447473 63.32 44.34
2274 20 1 0 89.2361376188556 63.32 38.2
2275 20 2 0 90.33310313031588 63.32 38.833333333333336
2276 20 3 -0.6666666666666666 90.33310313031588 65.7 38.833333333333336
2277 20 4 0 91.43006864177617 63.32 39.46666666666667
2278 20 5 0.6666666666666666 91.43006864177617 60.94 39.46666666666667
2279 20 6 0 89.2361376188556 63.32 33.96
2280 20 1 0 92.52703415323647 63.32 40.1
2281 21 1 0 30.0 68.08 38.2
2282 21 2 0 31.09696551146029 68.08 38.833333333333336
2283 21 3 -0.6666666666666666 31.09696551146029 70.46 38.833333333333336
2284 21 4 0 32.19393102292058 68.08 39.46666666666667
2285 21 5 0.6666666666666666 32.19393102292058 65.7 39.46666666666667
2286 21 1 0 33.29089653438086 68.08 40.1
2287 21 2 0 34.38786204584115 68.08 39.46666666666667
2288 21 3 -0.6666666666666666 34.38786204584115 65.7 39.46666666666667
2289 21 4 0 35.48482755730144 68.08 38.833333333333336
2290 21 5 0.6666666666666666 35.48482755730144 70.46 38.833333333333336
2291 21 6 0 33.29089653438086 68.08 44.34
2292 21 1 0 36.58179306876173 68.08 38.2
2293 21 2 0 37.67875858022202 68.08 38.833333333333336
2294 21 3 -0.6666666666666666 37.67875858022202 70.46 38.833333333333336
2295 21 4 0 38.775724091682314 68.08 39.46666666666667
2296 21 5 0.6666666666666666 38.775724091682314 65.7 39.46666666666667
2297 21 6 0 36.58179306876173 68.08 33.96
2298 21 1 0 39.872689603142604 68.08 40.1
2299 21 2 0 40.969655114602894 68.08 39.46666666666667
2300 21 3 -0.6666666666666666 40.969655114602894 65.7 39.46666666666667
2301 21 4 0 42.066620626063184 68.08 38.833333333333336
2302 21 5 0.6666666666666666 42.066620626063184 70.46 38.833333333333336
2303 21 6 0 39.872689603142604 68.08 44.34
2304 21 1 0 43.16358613752347 68.08 38.2
2305 21 2 0 44.26055164898376 68.08 38.833333333333336
2306 21 3 -0.6666666666666666 44.26055164898376 70.46 38.833333333333336
2307 21 4 0 45.35751716044405 68.08 39.46666666666667
2308 21 5 0.6666666666666666 45.35751716044405 65.7 39.46666666666667
2309 21 6 0 43.16358613752347 68.08 33.96
2310 21 1 0 46.45448267190433 68.08 40.1
2311 21 2 0 47.55144818336462 68.08 39.46666666666667
2312 21 3 -0.6666666666666666 47.55144818336462 65.7 39.46666666666667
2313 21 4 0 48.64841369482491 68.08 38.833333333333336
2314 21 5 0.6666666666666666 48.64841369482491 70.46 38.833333333333336
2315 21 6 0 46.45448267190433 68.08 44.34
2316 21 1 0 49.7453792062852 68.08 38.2
2317 21 2 0 50.84234471774549 68.08 38.833333333333336
2318 21 3 -0.6666666666666666 50.84234471774549 70.46 38.833333333333336
2319 21 4 0 51.93931022920578 68.08 39.46666666666667
2320 21 5 0.6666666666666666 51.93931022920578 65.7 39.46666666666667
2321 21 6 0 49.7453792062852 68.08 33.96
2322 21 1 0 53.03627574066607 68.08 40.1
2323 21 2 0 54.13324125212636 68.08 39.46666666666667
2324 21 3 -0.6666666666666666 54.13324125212636 65.7 39.46666666666667
2325 21 4 0 55.23020676358665 68.08 38.833333333333336
2326 21 5 0.6666666666666666 55.23020676358665 70.46 38.833333333333336
2327 21 6 0 53.03627574066607 68.08 44.34
2328 21 1 0 56.327172275046934 68.08 38.2
2329 21 2 0 57.424137786507224 68.08 38.833333333333336
2330 21 3 -0.6666666666666666 57.424137786507224 70.46 38.833333333333336
2331 21 4 0 58.521103297967514 68.08 39.46666666666667
2332 21 5 0.6666666666666666 58.521103297967514 65.7 39.46666666666667
2333 21 6 0 56.327172275046934 68.08 33.96
2334 21 1 0 59.6180688094278 68.08 40.1
2335 21 2 0 60.71503432088809 68.08 39.46666666666667
2336 21 3 -0.6666666666666666 60.71503432088809 65.7 39.46666666666667
2337 21 4 0 61.81199983234838 68.08 38.833333333333336
2338 21 5 0.6666666666666666 61.81199983234838 70.46 38.833333333333336
2339 21 6 0 59.6180688094278 68.08 44.34
2340 21 1 0 62.90896534380867 68.08 38.2
2341 21 2 0 64.00593085526896 68.08 38.833333333333336
2342 21 3 -0.6666666666666666 64.00593085526896 70.46 38.833333333333336
2343 21 4 0 65.10289636672924 68.08 39.46666666666667
2344 21 5 0.6666666666666666 65.10289636672924 65.7 39.46666666666667
2345 21 6 0 62.90896534380867 68.08 33.96
2346 21 1 0 66.19986187818954 68.08 40.1
2347 21 2 0 67.29682738964982 68.08 39.46666666666667
2348 21 3 -0.6666666666666666 67.29682738964982 65.7 39.46666666666667
2349 21 4 0 68.39379290111012 68.08 38.833333333333336
2350 21 5 0.6666666666666666 68.39379290111012 70.46 38.833333333333336
2351 21 6 0 66.19986187818954 68.08 44.34
2352 21 1 0 69.4907584125704 68.08 38.2
2353 21 2 0 70.58772392403068 68.08 38.833333333333336
2354 21 3 -0.6666666666666666 70.58772392403068 70.46 38.833333333333336
2355 21 4 0 71.68468943549098 68.08 39.46666666666667
2356 21 5 0.6666666666666666 71.68468943549098 65.7 39.46666666666667
2357 21 6 0 69.4907584125704 68.08 33.96
2358 21 1 0 72.78165494695126 68.08 40.1
2359 21 2 0 73.87862045841155 68.08 39.46666666666667
2360 21 3 -0.6666666666666666 73.87862045841155 65.7 39.46666666666667
2361 21 4 0 74.97558596987184 68.08 38.833333333333336
2362 21 5 0.6666666666666666 74.97558596987184 70.46 38.833333333333336
2363 21 6 0 72.78165494695126 68.08 44.34
2364 21 1 0 76.07255148133214 68.08 38.2
2365 21 2 0 77.16951699279242 68.08 38.833333333333336
2366 21 3 -0.6666666666666666 77.16951699279242 70.46 38.833333333333336
2367 21 4 0 78.26648250425272 68.08 39.46666666666667
2368 21 5 0.6666666666666666 78.26648250425272 65.7 39.46666666666667
2369 21 6 0 76.07255148133214 68.08 33.96
2370 21 1 0 79.363448015713 68.08 40.1
2371 21 2 0 80.46041352717329 68.08 39.46666666666667
2372 21 3 -0.6666666666666666 80.46041352717329 65.7 39.46666666666667
2373 21 4 0 81.55737903863358 68.08 38.833333333333336
2374 21 5 0.6666666666666666 81.55737903863358 70.46 38.833333333333336
2375 21 6 0 79.363448015713 68.08 44.34
2376 21 1 0 82.65434455009387 68.08 38.2
2377 21 2 0 83.75131006155415 68.08 38.833333333333336
2378 21 3 -0.6666666666666666 83.75131006155415 70.46 38.833333333333336
2379 21 4 0 84.84827557301445 68.08 39.46666666666667
2380 21 5 0.6666666666666666 84.84827557301445 65.7 39.46666666666667
2381 21 6 0 82.65434455009387 68.08 33.96
2382 21 1 0 85.94524108447473 68.08 40.1
2383 21 2 0 87.04220659593501 68.08 39.46666666666667
2384 21 3 -0.6666666666666666 87.04220659593501 65.7 39.46666666666667
2385 21 4 0 88.13917210739531 68.08 38.833333333333336
2386 21 5 0.6666666666666666 88.13917210739531 70.46 38.833333333333336
2387 21 6 0 85.94524108447473 68.08 44.34
2388 21 1 0 89.2361376188556 68.08 38.2
2389 21 2 0 90.33310313031588 68.08 38.833333333333336
2390 21 3 -0.6666666666666666 90.33310313031588 70.46 38.833333333333336
2391 21 4 0 91.43006864177617 68.08 39.46666666666667
2392 21 5 0.6666666666666666 91.43006864177617 65.7 39.46666666666667
2393 21 6 0 89.2361376188556 68.08 33.96
2394 21 1 0 92.52703415323647 68.08 40.1
2395 22 1 0 30.0 72.84 38.2
2396 22 2 0 31.09696551146029 72.84 38.833333333333336
2397 22 3 -0.6666666666666666 31.09696551146029 75.22 38.833333333333336
2398 22 4 0 32.19393102292058 72.84 39.46666666666667
2399 22 5 0.6666666666666666 32.19393102292058 70.46000000000001 39.46666666666667
2400 22 1 0 33.29089653438086 72.84 40.1
2401 22 2 0 34.38786204584115 72.84 39.46666666666667
2402 22 3 -0.6666666666666666 34.38786204584115 70.46000000000001 39.46666666666667
2403 22 4 0 35.48482755730144 72.84 38.833333333333336
2404 22 5 0.6666666666666666 35.48482755730144 75.22 38.833333333333336
2405 22 6 0 33.29089653438086 72.84 44.34
2406 22 1 0 36.58179306876173 72.84 38.2
2407 22 2 0 37.67875858022202 72.84 38.833333333333336
2408 22 3 -0.6666666666666666 37.67875858022202 75.22 38.833333333333336
2409 22 4 0 38.775724091682314 72.84 39.46666666666667
2410 22 5 0.6666666666666666 38.775724091682314 70.46000000000001 39.46666666666667
2411 22 6 0 36.58179306876173 72.84 33.96
2412 22 1 0 39.872689603142604 72.84 40.1
2413 22 2 0 40.969655114602894 72.84 39.46666666666667
2414 22 3 -0.6666666666666666 40.969655114602894 70.46000000000001 39.46666666666667
2415 22 4 0 42.066620626063184 72.84 38.833333333333336
2416 22 5 0.6666666666666666 42.066620626063184 75.22 38.833333333333336
2417 22 6 0 39.872689603142604 72.84 44.34
2418 22 1 0 43.16358613752347 72.84 38.2
2419 22 2 0 44.26055164898376 72.84 38.833333333333336
2420 22 3 -0.6666666666666666 44.26055164898376 75.22 38.833333333333336
2421 22 4 0 45.35751716044405 72.84 39.46666666666667
2422 22 5 0.6666666666666666 45.35751716044405 70.46000000000001 39.46666666666667
2423 22 6 0 43.16358613752347 72.84 33.96
2424 22 1 0 46.45448267190433 72.84 40.1
2425 22 2 0 47.55144818336462 72.84 39.46666666666667
2426 22 3 -0.6666666666666666 47.55144818336462 70.46000000000001 39.46666666666667
2427 22 4 0 48.64841369482491 72.84 38.833333333333336
2428 22 5 0.6666666666666666 48.64841369482491 75.22 38.833333333333336
2429 22 6 0 46.45448267190433 72.84 44.34
2430 22 1 0 49.7453792062852 72.84 38.2
2431 22 2 0 50.84234471774549 72.84 38.833333333333336
2432 22 3 -0.6666666666666666 50.84234471774549 75.22 38.833333333333336
2433 22 4 0 51.93931022920578 72.84 39.46666666666667
2434 22 5 0.6666666666666666 51.93931022920578 70.46000000000001 39.46666666666667
2435 22 6 0 49.7453792062852 72.84 33.96
2436 22 1 0 53.03627574066607 72.84 40.1
2437 22 2 0 54.13324125212636 72.84 39.46666666666667
2438 22 3 -0.6666666666666666 54.13324125212636 70.46000000000001 39.46666666666667
2439 22 4 0 55.23020676358665 72.84 38.833333333333336
2440 22 5 0.6666666666666666 55.23020676358665 75.22 38.833333333333336
2441 22 6 0 53.03627574066607 72.84 44.34
2442 22 1 0 56.327172275046934 72.84 38.2
2443 22 2 0 57.424137786507224 72.84 38.833333333333336
2444 22 3 -0.6666666666666666 57.424137786507224 75.22 38.833333333333336
2445 22 4 0 58.521103297967514 72.84 39.46666666666667
2446 22 5 0.6666666666666666 58.521103297967514 70.46000000000001 39.46666666666667
2447 22 6 0 56.327172275046934 72.84 33.96
2448 22 1 0 59.6180688094278 72.84 40.1
2449 22 2 0 60.71503432088809 72.84 39.46666666666667
2450 22 3 -0.6666666666666666 60.71503432088809 70.46000000000001 39.46666666666667
2451 22 4 0 61.81199983234838 72.84 38.833333333333336
2452 22 5 0.6666666666666666 61.81199983234838 75.22 38.833333333333336
2453 22 6 0 59.6180688094278 72.84 44.34
2454 22 1 0 62.90896534380867 72.84 38.2
2455 22 2 0 64.00593085526896 72.84 38.833333333333336
2456 22 3 -0.6666666666666666 64.00593085526896 75.22 38.833333333333336
2457 22 4 0 65.10289636672924 72.84 39.46666666666667
2458 22 5 0.6666666666666666 65.10289636672924 70.46000000000001 39.46666666666667
2459 22 6 0 62.90896534380867 72.84 33.96
2460 22 1 0 66.19986187818954 72.84 40.1
2461 22 2 0 67.29682738964982 72.84 39.46666666666667
2462 22 3 -0.6666666666666666 67.29682738964982 70.46000000000001 39.46666666666667
2463 22 4 0 68.39379290111012 72.84 38.833333333333336
2464 22 5 0.6666666666666666 68.39379290111012 75.22 38.833333333333336
2465 22 6 0 66.19986187818954 72.84 44.34
2466 22 1 0 69.4907584125704 72.84 38.2
2467 22 2 0 70.58772392403068 72.84 38.833333333333336
2468 22 3 -0.6666666666666666 70.58772392403068 75.22 38.833333333333336
2469 22 4 0 71.68468943549098 72.84 39.46666666666667
2470 22 5 0.6666666666666666 71.68468943549098 70.46000000000001 39.46666666666667
2471 22 6 0 69.4907584125704 72.84 33.96
2472 22 1 0 72.78165494695126 72.84 40.1
2473 22 2 0 73.87862045841155 72.84 39.46666666666667
2474 22 3 -0.6666666666666666 73.87862045841155 70.46000000000001 39.46666666666667
2475 22 4 0 74.97558596987184 72.84 38.833333333333336
2476 22 5 0.6666666666666666 74.97558596987184 75.22 38.833333333333336
2477 22 6 0 72.78165494695126 72.84 44.34
2478 22 1 0 76.07255148133214 72.84 38.2
2479 22 2 0 77.16951699279242 72.84 38.833333333333336
2480 22 3 -0.6666666666666666 77.16951699279242 75.22 38.833333333333336
2481 22 4 0 78.26648250425272 72.84 39.46666666666667
2482 22 5 0.6666666666666666 78.26648250425272 70.46000000000001 39.46666666666667
2483 22 6 0 76.07255148133214 72.84 33.96
2484 22 1 0 79.363448015713 72.84 40.1
2485 22 2 0 80.46041352717329 72.84 39.46666666666667
2486 22 3 -0.6666666666666666 80.46041352717329 70.46000000000001 39.46666666666667
2487 22 4 0 81.55737903863358 72.84 38.833333333333336
2488 22 5 0.6666666666666666 81.55737903863358 75.22 38.833333333333336
2489 22 6 0 79.363448015713 72.84 44.34
2490 22 1 0 82.65434455009387 72.84 38.2
2491 22 2 0 83.75131006155415 72.84 38.833333333333336
2492 22 3 -0.6666666666666666 83.75131006155415 75.22 38.833333333333336
2493 22 4 0 84.84827557301445 72.84 39.46666666666667
2494 22 5 0.6666666666666666 84.84827557301445 70.46000000000001 39.46666666666667
2495 22 6 0 82.65434455009387 72.84 33.96
2496 22 1 0 85.94524108447473 72.84 40.1
2497 22 2 0 87.04220659593501 72.84 39.46666666666667
2498 22 3 -0.6666666666666666 87.04220659593501 70.46000000000001 39.46666666666667
2499 22 4 0 88.13917210739531 72.84 38.833333333333336
2500 22 5 0.6666666666666666 88.13917210739531 75.22 38.833333333333336
2501 22 6 0 85.94524108447473 72.84 44.34
2502 22 1 0 89.2361376188556 72.84 38.2
2503 22 2 0 90.33310313031588 72.84 38.833333333333336
2504 22 3 -0.6666666666666666 90.33310313031588 75.22 38.833333333333336
2505 22 4 0 91.43006864177617 72.84 39.46666666666667
2506 22 5 0.6666666666666666 91.43006864177617 70.46000000000001 39.46666666666667
2507 22 6 0 89.2361376188556 72.84 33.96
2508 22 1 0 92.52703415323647 72.84 40.1
2509 23 1 0 30.0 77.6 38.2
2510 23 2 0 31.09696551146029 77.6 38.833333333333336
2511 23 3 -0.6666666666666666 31.09696551146029 79.97999999999999 38.833333333333336
2512 23 4 0 32.19393102292058 77.6 39.46666666666667
2513 23 5 0.6666666666666666 32.19393102292058 75.22 39.46666666666667
2514 23 1 0 33.29089653438086 77.6 40.1
2515 23 2 0 34.38786204584115 77.6 39.46666666666667
2516 23 3 -0.6666666666666666 34.38786204584115 75.22 39.46666666666667
2517 23 4 0 35.48482755730144 77.6 38.833333333333336
2518 23 5 0.6666666666666666 35.48482755730144 79.97999999999999 38.833333333333336
2519 23 6 0 33.29089653438086 77.6 44.34
2520 23 1 0 36.58179306876173 77.6 38.2
2521 23 2 0 37.67875858022202 77.6 38.833333333333336
2522 23 3 -0.6666666666666666 37.67875858022202 79.97999999999999 38.833333333333336
2523 23 4 0 38.775724091682314 77.6 39.46666666666667
2524 23 5 0.6666666666666666 38.775724091682314 75.22 39.46666666666667
2525 23 6 0 36.58179306876173 77.6 33.96
2526 23 1 0 39.872689603142604 77.6 40.1
2527 23 2 0 40.969655114602894 77.6 39.46666666666667
2528 23 3 -0.6666666666666666 40.969655114602894 75.22 39.46666666666667
2529 23 4 0 42.066620626063184 77.6 38.833333333333336
2530 23 5 0.6666666666666666 42.066620626063184 79.97999999999999 38.833333333333336
2531 23 6 0 39.872689603142604 77.6 44.34
2532 23 1 0 43.16358613752347 77.6 38.2
2533 23 2 0 44.26055164898376 77.6 38.833333333333336
2534 23 3 -0.6666666666666666 44.26055164898376 79.97999999999999 38.833333333333336
2535 23 4 0 45.35751716044405 77.6 39.46666666666667
2536 23 5 0.6666666666666666 45.35751716044405 75.22 39.46666666666667
2537 23 6 0 43.16358613752347 77.6 33.96
2538 23 1 0 46.45448267190433 77.6 40.1
2539 23 2 0 47.55144818336462 77.6 39.46666666666667
2540 23 3 -0.6666666666666666 47.55144818336462 75.22 39.46666666666667
2541 23 4 0 48.64841369482491 77.6 38.833333333333336
2542 23 5 0.6666666666666666 48.64841369482491 79.97999999999999 38.833333333333336
2543 23 6 0 46.45448267190433 77.6 44.34
2544 23 1 0 49.7453792062852 77.6 38.2
2545 23 2 0 50.84234471774549 77.6 38.833333333333336
2546 23 3 -0.6666666666666666 50.84234471774549 79.97999999999999 38.833333333333336
2547 23 4 0 51.93931022920578 77.6 39.46666666666667
2548 23 5 0.6666666666666666 51.93931022920578 75.22 39.46666666666667
2549 23 6 0 49.7453792062852 77.6 33.96
2550 23 1 0 53.03627574066607 77.6 40.1
2551 23 2 0 54.13324125212636 77.6 39.46666666666667
2552 23 3 -0.6666666666666666 54.13324125212636 75.22 39.46666666666667
2553 23 4 0 55.23020676358665 77.6 38.833333333333336
2554 23 5 0.6666666666666666 55.23020676358665 79.97999999999999 38.833333333333336
2555 23 6 0 53.03627574066607 77.6 44.34
2556 23 1 0 56.327172275046934 77.6 38.2
2557 23 2 0 57.424137786507224 77.6 38.833333333333336
2558 23 3 -0.6666666666666666 57.424137786507224 79.97999999999999 38.833333333333336
2559 23 4 0 58.521103297967514 77.6 39.46666666666667
2560 23 5 0.6666666666666666 58.521103297967514 75.22 39.46666666666667
2561 23 6 0 56.327172275046934 77.6 33.96
2562 23 1 0 59.6180688094278 77.6 40.1
2563 23 2 0 60.71503432088809 77.6 39.46666666666667
2564 23 3 -0.6666666666666666 60.71503432088809 75.22 39.46666666666667
2565 23 4 0 61.81199983234838 77.6 38.833333333333336
2566 23 5 0.6666666666666666 61.81199983234838 79.97999999999999 38.833333333333336
2567 23 6 0 59.6180688094278 77.6 44.34
2568 23 1 0 62.90896534380867 77.6 38.2
2569 23 2 0 64.00593085526896 77.6 38.833333333333336
2570 23 3 -0.6666666666666666 64.00593085526896 79.97999999999999 38.833333333333336
2571 23 4 0 65.10289636672924 77.6 39.46666666666667
2572 23 5 0.6666666666666666 65.10289636672924 75.22 39.46666666666667
2573 23 6 0 62.90896534380867 77.6 33.96
2574 23 1 0 66.19986187818954 77.6 40.1
2575 23 2 0 67.29682738964982 77.6 39.46666666666667
2576 23 3 -0.6666666666666666 67.29682738964982 75.22 39.46666666666667
2577 23 4 0 68.39379290111012 77.6 38.833333333333336
2578 23 5 0.6666666666666666 68.39379290111012 79.97999999999999 38.833333333333336
2579 23 6 0 66.19986187818954 77.6 44.34
2580 23 1 0 69.4907584125704 77.6 38.2
2581 23 2 0 70.58772392403068 77.6 38.833333333333336
2582 23 3 -0.6666666666666666 70.58772392403068 79.97999999999999 38.833333333333336
2583 23 4 0 71.68468943549098 77.6 39.46666666666667
2584 23 5 0.6666666666666666 71.68468943549098 75.22 39.46666666666667
2585 23 6 0 69.4907584125704 77.6 33.96
2586 23 1 0 72.78165494695126 77.6 40.1
2587 23 2 0 73.87862045841155 77.6 39.46666666666667
2588 23 3 -0.6666666666666666 73.87862045841155 75.22 39.46666666666667
2589 23 4 0 74.97558596987184 77.6 38.833333333333336
2590 23 5 0.6666666666666666 74.97558596987184 79.97999999999999 38.833333333333336
2591 23 6 0 72.78165494695126 77.6 44.34
2592 23 1 0 76.07255148133214 77.6 38.2
2593 23 2 0 77.16951699279242 77.6 38.833333333333336
2594 23 3 -0.6666666666666666 77.16951699279242 79.97999999999999 38.833333333333336
2595 23 4 0 78.26648250425272 77.6 39.46666666666667
2596 23 5 0.6666666666666666 78.26648250425272 75.22 39.46666666666667
2597 23 6 0 76.07255148133214 77.6 33.96
2598 23 1 0 79.363448015713 77.6 40.1
2599 23 2 0 80.46041352717329 77.6 39.46666666666667
2600 23 3 -0.6666666666666666 80.46041352717329 75.22 39.46666666666667
2601 23 4 0 81.55737903863358 77.6 38.833333333333336
2602 23 5 0.6666666666666666 81.55737903863358 79.97999999999999 38.833333333333336
2603 23 6 0 79.363448015713 77.6 44.34
2604 23 1 0 82.65434455009387 77.6 38.2
2605 23 2 0 83.75131006155415 77.6 38.833333333333336
2606 23 3 -0.6666666666666666 83.75131006155415 79.97999999999999 38.833333333333336
2607 23 4 0 84.84827557301445 77.6 39.46666666666667
2608 23 5 0.6666666666666666 84.84827557301445 75.22 39.46666666666667
2609 23 6 0 82.65434455009387 77.6 33.96
2610 23 1 0 85.94524108447473 77.6 40.1
2611 23 2 0 87.04220659593501 77.6 39.46666666666667
2612 23 3 -0.6666666666666666 87.04220659593501 75.22 39.46666666666667
2613 23 4 0 88.13917210739531 77.6 38.833333333333336
2614 23 5 0.6666666666666666 88.13917210739531 79.97999999999999 38.833333333333336
2615 23 6 0 85.94524108447473 77.6 44.34
2616 23 1 0 89.2361376188556 77.6 38.2
2617 23 2 0 90.33310313031588 77.6 38.833333333333336
2618 23 3 -0.6666666666666666 90.33310313031588 79.97999999999999 38.833333333333336
2619 23 4 0 91.43006864177617 77.6 39.46666666666667
2620 23 5 0.6666666666666666 91.43006864177617 75.22 39.46666666666667
2621 23 6 0 89.2361376188556 77.6 33.96
2622 23 1 0 92.52703415323647 77.6 40.1
2623 24 1 0 30.0 82.36 38.2
2624 24 2 0 31.09696551146029 82.36 38.833333333333336
2625 24 3 -0.6666666666666666 31.09696551146029 84.74 38.833333333333336
2626 24 4 0 32.19393102292058 82.36 39.46666666666667
2627 24 5 0.6666666666666666 32.19393102292058 79.98 39.46666666666667
2628 24 1 0 33.29089653438086 82.36 40.1
2629 24 2 0 34.38786204584115 82.36 39.46666666666667
2630 24 3 -0.6666666666666666 34.38786204584115 79.98 39.46666666666667
2631 24 4 0 35.48482755730144 82.36 38.833333333333336
2632 24 5 0.6666666666666666 35.48482755730144 84.74 38.833333333333336
2633 24 6 0 33.29089653438086 82.36 44.34
2634 24 1 0 36.58179306876173 82.36 38.2
2635 24 2 0 37.67875858022202 82.36 38.833333333333336
2636 24 3 -0.6666666666666666 37.67875858022202 84.74 38.833333333333336
2637 24 4 0 38.775724091682314 82.36 39.46666666666667
2638 24 5 0.6666666666666666 38.775724091682314 79.98 39.46666666666667
2639 24 6 0 36.58179306876173 82.36 33.96
2640 24 1 0 39.872689603142604 82.36 40.1
2641 24 2 0 40.969655114602894 82.36 39.46666666666667
2642 24 3 -0.6666666666666666 40.969655114602894 79.98 39.46666666666667
2643 24 4 0 42.066620626063184 82.36 38.833333333333336
2644 24 5 0.6666666666666666 42.066620626063184 84.74 38.833333333333336
2645 24 6 0 39.872689603142604 82.36 44.34
2646 24 1 0 43.16358613752347 82.36 38.2
2647 24 2 0 44.26055164898376 82.36 38.833333333333336
2648 24 3 -0.6666666666666666 44.26055164898376 84.74 38.833333333333336
2649 24 4 0 45.35751716044405 82.36 39.46666666666667
2650 24 5 0.6666666666666666 45.35751716044405 79.98 39.46666666666667
2651 24 6 0 43.16358613752347 82.36 33.96
2652 24 1 0 46.45448267190433 82.36 40.1
2653 24 2 0 47.55144818336462 82.36 39.46666666666667
2654 24 3 -0.6666666666666666 47.55144818336462 79.98 39.46666666666667
2655 24 4 0 48.64841369482491 82.36 38.833333333333336
2656 24 5 0.6666666666666666 48.64841369482491 84.74 38.833333333333336
2657 24 6 0 46.45448267190433 82.36 44.34
2658 24 1 0 49.7453792062852 82.36 38.2
2659 24 2 0 50.84234471774549 82.36 38.833333333333336
2660 24 3 -0.6666666666666666 50.84234471774549 84.74 38.833333333333336
2661 24 4 0 51.93931022920578 82.36 39.46666666666667
2662 24 5 0.6666666666666666 51.93931022920578 79.98 39.46666666666667
2663 24 6 0 49.7453792062852 82.36 33.96
2664 24 1 0 53.03627574066607 82.36 40.1
2665 24 2 0 54.13324125212636 82.36 39.46666666666667
2666 24 3 -0.6666666666666666 54.13324125212636 79.98 39.46666666666667
2667 24 4 0 55.23020676358665 82.36 38.833333333333336
2668 24 5 0.6666666666666666 55.23020676358665 84.74 38.833333333333336
2669 24 6 0 53.03627574066607 82.36 44.34
2670 24 1 0 56.327172275046934 82.36 38.2
2671 24 2 0 57.424137786507224 82.36 38.833333333333336
2672 24 3 -0.6666666666666666 57.424137786507224 84.74 38.833333333333336
2673 24 4 0 58.521103297967514 82.36 39.46666666666667
2674 24 5 0.6666666666666666 58.521103297967514 79.98 39.46666666666667
2675 24 6 0 56.327172275046934 82.36 33.96
2676 24 1 0 59.6180688094278 82.36 40.1
2677 24 2 0 60.71503432088809 82.36 39.46666666666667
2678 24 3 -0.6666666666666666 60.71503432088809 79.98 39.46666666666667
2679 24 4 0 61.81199983234838 82.36 38.833333333333336
2680 24 5 0.6666666666666666 61.81199983234838 84.74 38.833333333333336
2681 24 6 0 59.6180688094278 82.36 44.34
2682 24 1 0 62.90896534380867 82.36 38.2
2683 24 2 0 64.00593085526896 82.36 38.833333333333336
2684 24 3 -0.6666666666666666 64.00593085526896 84.74 38.833333333333336
2685 24 4 0 65.10289636672924 82.36 39.46666666666667
2686 24 5 0.6666666666666666 65.10289636672924 79.98 39.46666666666667
2687 24 6 0 62.90896534380867 82.36 33.96
2688 24 1 0 66.19986187818954 82.36 40.1
2689 24 2 0 67.29682738964982 82.36 39.46666666666667
2690 24 3 -0.6666666666666666 67.29682738964982 79.98 39.46666666666667
2691 24 4 0 68.39379290111012 82.36 38.833333333333336
2692 24 5 0.6666666666666666 68.39379290111012 84.74 38.833333333333336
2693 24 6 0 66.19986187818954 82.36 44.34
2694 24 1 0 69.4907584125704 82.36 38.2
2695 24 2 0 70.58772392403068 82.36 38.833333333333336
2696 24 3 -0.6666666666666666 70.58772392403068 84.74 38.833333333333336
2697 24 4 0 71.68468943549098 82.36 39.46666666666667
2698 24 5 0.6666666666666666 71.68468943549098 79.98 39.46666666666667
2699 24 6 0 69.4907584125704 82.36 33.96
2700 24 1 0 72.78165494695126 82.36 40.1
2701 24 2 0 73.87862045841155 82.36 39.46666666666667
2702 24 3 -0.6666666666666666 73.87862045841155 79.98 39.46666666666667
2703 24 4 0 74.97558596987184 82.36 38.833333333333336
2704 24 5 0.6666666666666666 74.97558596987184 84.74 38.833333333333336
2705 24 6 0 72.78165494695126 82.36 44.34
2706 24 1 0 76.07255148133214 82.36 38.2
2707 24 2 0 77.16951699279242 82.36 38.833333333333336
2708 24 3 -0.6666666666666666 77.16951699279242 84.74 38.833333333333336
2709 24 4 0 78.26648250425272 82.36 39.46666666666667
2710 24 5 0.6666666666666666 78.26648250425272 79.98 39.46666666666667
2711 24 6 0 76.07255148133214 82.36 33.96
2712 24 1 0 79.363448015713 82.36 40.1
2713 24 2 0 80.46041352717329 82.36 39.46666666666667
2714 24 3 -0.6666666666666666 80.46041352717329 79.98 39.46666666666667
2715 24 4 0 81.55737903863358 82.36 38.833333333333336
2716 24 5 0.6666666666666666 81.55737903863358 84.74 38.833333333333336
2717 24 6 0 79.363448015713 82.36 44.34
2718 24 1 0 82.65434455009387 82.36 38.2
2719 24 2 0 83.75131006155415 82.36 38.833333333333336
2720 24 3 -0.6666666666666666 83.75131006155415 84.74 38.833333333333336
2721 24 4 0 84.84827557301445 82.36 39.46666666666667
2722 24 5 0.6666666666666666 84.84827557301445 79.98 39.46666666666667
2723 24 6 0 82.65434455009387 82.36 33.96
2724 24 1 0 85.94524108447473 82.36 40.1
2725 24 2 0 87.04220659593501 82.36 39.46666666666667
2726 24 3 -0.6666666666666666 87.04220659593501 79.98 39.46666666666667
2727 24 4 0 88.13917210739531 82.36 38.833333333333336
2728 24 5 0.6666666666666666 88.13917210739531 84.74 38.833333333333336
2729 24 6 0 85.94524108447473 82.36 44.34
2730 24 1 0 89.2361376188556 82.36 38.2
2731 24 2 0 90.33310313031588 82.36 38.833333333333336
2732 24 3 -0.6666666666666666 90.33310313031588 84.74 38.833333333333336
2733 24 4 0 91.43006864177617 82.36 39.46666666666667
2734 24 5 0.6666666666666666 91.43006864177617 79.98 39.46666666666667
2735 24 6 0 89.2361376188556 82.36 33.96
2736 24 1 0 92.52703415323647 82.36 40.1
2737 25 1 0 30.0 30.0 46.4
2738 25 2 0 31.09696551146029 30.0 47.03333333333333
2739 25 3 -0.6666666666666666 31.09696551146029 32.38 47.03333333333333
2740 25 4 0 32.19393102292058 30.0 47.666666666666664
2741 25 5 0.6666666666666666 32.19393102292058 27.62 47.666666666666664
2742 25 1 0 33.29089653438086 30.0 48.3
2743 25 2 0 34.38786204584115 30.0 47.666666666666664
2744 25 3 -0.6666666666666666 34.38786204584115 27.62 47.666666666666664
2745 25 4 0 35.48482755730144 30.0 47.03333333333333
2746 25 5 0.6666666666666666 35.48482755730144 32.38 47.03333333333333
2747 25 6 0 33.29089653438086 30.0 52.54
2748 25 1 0 36.58179306876173 30.0 46.4
2749 25 2 0 37.67875858022202 30.0 47.03333333333333
2750 25 3 -0.6666666666666666 37.67875858022202 32.38 47.03333333333333
2751 25 4 0 38.775724091682314 30.0 47.666666666666664
2752 25 5 0.6666666666666666 38.775724091682314 27.62 47.666666666666664
2753 25 6 0 36.58179306876173 30.0 42.16
2754 25 1 0 39.872689603142604 30.0 48.3
2755 25 2 0 40.969655114602894 30.0 47.666666666666664
2756 25 3 -0.6666666666666666 40.969655114602894 27.62 47.666666666666664
2757 25 4 0 42.066620626063184 30.0 47.03333333333333
2758 25 5 0.6666666666666666 42.066620626063184 32.38 47.03333333333333
2759 25 6 0 39.872689603142604 30.0 52.54
2760 25 1 0 43.16358613752347 30.0 46.4
2761 25 2 0 44.26055164898376 30.0 47.03333333333333
2762 25 3 -0.6666666666666666 44.26055164898376 32.38 47.03333333333333
2763 25 4 0 45.35751716044405 30.0 47.666666666666664
2764 25 5 0.6666666666666666 45.35751716044405 27.62 47.666666666666664
2765 25 6 0 43.16358613752347 30.0 42.16
2766 25 1 0 46.45448267190433 30.0 48.3
2767 25 2 0 47.55144818336462 30.0 47.666666666666664
2768 25 3 -0.6666666666666666 47.55144818336462 27.62 47.666666666666664
2769 25 4 0 48.64841369482491 30.0 47.03333333333333
2770 25 5 0.6666666666666666 48.64841369482491 32.38 47.03333333333333
2771 25 6 0 46.45448267190433 30.0 52.54
2772 25 1 0 49.7453792062852 30.0 46.4
2773 25 2 0 50.84234471774549 30.0 47.03333333333333
2774 25 3 -0.6666666666666666 50.84234471774549 32.38 47.03333333333333
2775 25 4 0 51.93931022920578 30.0 47.666666666666664
2776 25 5 0.6666666666666666 51.93931022920578 27.62 47.666666666666664
2777 25 6 0 49.7453792062852 30.0 42.16
2778 25 1 0 53.03627574066607 30.0 48.3
2779 25 2 0 54.13324125212636 30.0 47.666666666666664
2780 25 3 -0.6666666666666666 54.13324125212636 27.62 47.666666666666664
2781 25 4 0 55.23020676358665 30.0 47.03333333333333
2782 25 5 0.6666666666666666 55.23020676358665 32.38 47.03333333333333
2783 25 6 0 53.03627574066607 30.0 52.54
2784 25 1 0 56.327172275046934 30.0 46.4
2785 25 2 0 57.424137786507224 30.0 47.03333333333333
2786 25 3 -0.6666666666666666 57.424137786507224 32.38 47.03333333333333
2787 25 4 0 58.521103297967514 30.0 47.666666666666664
2788 25 5 0.6666666666666666 58.521103297967514 27.62 47.666666666666664
2789 25 6 0 56.327172275046934 30.0 42.16
2790 25 1 0 59.6180688094278 30.0 48.3
2791 25 2 0 60.71503432088809 30.0 47.666666666666664
2792 25 3 -0.6666666666666666 60.71503432088809 27.62 47.666666666666664
2793 25 4 0 61.81199983234838 30.0 47.03333333333333
2794 25 5 0.6666666666666666 61.81199983234838 32.38 47.03333333333333
2795 25 6 0 59.6180688094278 30.0 52.54
2796 25 1 0 62.90896534380867 30.0 46.4
2797 25 2 0 64.00593085526896 30.0 47.03333333333333
2798 25 3 -0.6666666666666666 64.00593085526896 32.38 47.03333333333333
2799 25 4 0 65.10289636672924 30.0 47.666666666666664
2800 25 5 0.6666666666666666 65.10289636672924 27.62 47.666666666666664
2801 25 6 0 62.90896534380867 30.0 42.16
2802 25 1 0 66.19986187818954 30.0 48.3
2803 25 2 0 67.29682738964982 30.0 47.666666666666664
2804 25 3 -0.6666666666666666 67.29682738964982 27.62 47.666666666666664
2805 25 4 0 68.39379290111012 30.0 47.03333333333333
2806 25 5 0.6666666666666666 68.39379290111012 32.38 47.03333333333333
2807 25 6 0 66.19986187818954 30.0 52.54
2808 25 1 0 69.4907584125704 30.0 46.4
2809 25 2 0 70.58772392403068 30.0 47.03333333333333
2810 25 3 -0.6666666666666666 70.58772392403068 32.38 47.03333333333333
2811 25 4 0 71.68468943549098 30.0 47.666666666666664
2812 25 5 0.6666666666666666 71.68468943549098 27.62 47.666666666666664
2813 25 6 0 69.4907584125704 30.0 42.16
2814 25 1 0 72.78165494695126 30.0 48.3
2815 25 2 0 73.87862045841155 30.0 47.666666666666664
2816 25 3 -0.6666666666666666 73.87862045841155 27.62 47.666666666666664
2817 25 4 0 74.97558596987184 30.0 47.03333333333333
2818 25 5 0.6666666666666666 74.97558596987184 32.38 47.03333333333333
2819 25 6 0 72.78165494695126 30.0 52.54
2820 25 1 0 76.07255148133214 30.0 46.4
2821 25 2 0 77.16951699279242 30.0 47.03333333333333
2822 25 3 -0.6666666666666666 77.16951699279242 32.38 47.03333333333333
2823 25 4 0 78.26648250425272 30.0 47.666666666666664
2824 25 5 0.6666666666666666 78.26648250425272 27.62 47.666666666666664
2825 25 6 0 76.07255148133214 30.0 42.16
2826 25 1 0 79.363448015713 30.0 48.3
2827 25 2 0 80.46041352717329 30.0 47.666666666666664
2828 25 3 -0.6666666666666666 80.46041352717329 27.62 47.666666666666664
2829 25 4 0 81.55737903863358 30.0 47.03333333333333
2830 25 5 0.6666666666666666 81.55737903863358 32.38 47.03333333333333
2831 25 6 0 79.363448015713 30.0 52.54
2832 25 1 0 82.65434455009387 30.0 46.4
2833 25 2 0 83.75131006155415 30.0 47.03333333333333
2834 25 3 -0.6666666666666666 83.75131006155415 32.38 47.03333333333333
2835 25 4 0 84.84827557301445 30.0 47.666666666666664
2836 25 5 0.6666666666666666 84.84827557301445 27.62 47.666666666666664
2837 25 6 0 82.65434455009387 30.0 42.16
2838 25 1 0 85.94524108447473 30.0 48.3
2839 25 2 0 87.04220659593501 30.0 47.666666666666664
2840 25 3 -0.6666666666666666 87.04220659593501 27.62 47.666666666666664
2841 25 4 0 88.13917210739531 30.0 47.03333333333333
2842 25 5 0.6666666666666666 88.13917210739531 32.38 47.03333333333333
2843 25 6 0 85.94524108447473 30.0 52.54
2844 25 1 0 89.2361376188556 30.0 46.4
2845 25 2 0 90.33310313031588 30.0 47.03333333333333
2846 25 3 -0.6666666666666666 90.33310313031588 32.38 47.03333333333333
2847 25 4 0 91.43006864177617 30.0 47.666666666666664
2848 25 5 0.6666666666666666 91.43006864177617 27.62 47.666666666666664
2849 25 6 0 89.2361376188556 30.0 42.16
2850 25 1 0 92.52703415323647 30.0 48.3
2851 26 1 0 30.0 34.76 46.4
2852 26 2 0 31.09696551146029 34.76 47.03333333333333
2853 26 3 -0.6666666666666666 31.09696551146029 37.14 47.03333333333333
2854 26 4 0 32.19393102292058 34.76 47.666666666666664
2855 26 5 0.6666666666666666 32.19393102292058 32.379999999999995 47.666666666666664
2856 26 1 0 33.29089653438086 34.76 48.3
2857 26 2 0 34.38786204584115 34.76 47.666666666666664
2858 26 3 -0.6666666666666666 34.38786204584115 32.379999999999995 47.666666666666664
2859 26 4 0 35.48482755730144 34.76 47.03333333333333
2860 26 5 0.6666666666666666 35.48482755730144 37.14 47.03333333333333
2861 26 6 0 33.29089653438086 34.76 52.54
2862 26 1 0 36.58179306876173 34.76 46.4
2863 26 2 0 37.67875858022202 34.76 47.03333333333333
2864 26 3 -0.6666666666666666 37.67875858022202 37.14 47.03333333333333
2865 26 4 0 38.775724091682314 34.76 47.666666666666664
2866 26 5 0.6666666666666666 38.775724091682314 32.379999999999995 47.666666666666664
2867 26 6 0 36.58179306876173 34.76 42.16
2868 26 1 0 39.872689603142604 34.76 48.3
2869 26 2 0 40.969655114602894 34.76 47.666666666666664
2870 26 3 -0.6666666666666666 40.969655114602894 32.379999999999995 47.666666666666664
2871 26 4 0 42.066620626063184 34.76 47.03333333333333
2872 26 5 0.6666666666666666 42.066620626063184 37.14 47.03333333333333
2873 26 6 0 39.872689603142604 34.76 52.54
2874 26 1 0 43.16358613752347 34.76 46.4
2875 26 2 0 44.26055164898376 34.76 47.03333333333333
2876 26 3 -0.6666666666666666 44.26055164898376 37.14 47.03333333333333
2877 26 4 0 45.35751716044405 34.76 47.666666666666664
2878 26 5 0.6666666666666666 45.35751716044405 32.379999999999995 47.666666666666664
2879 26 6 0 43.16358613752347 34.76 42.16
2880 26 1 0 46.45448267190433 34.76 48.3
2881 26 2 0 47.55144818336462 34.76 47.666666666666664
2882 26 3 -0.6666666666666666 47.55144818336462 32.379999999999995 47.666666666666664
2883 26 4 0 48.64841369482491 34.76 47.03333333333333
2884 26 5 0.6666666666666666 48.64841369482491 37.14 47.03333333333333
2885 26 6 0 46.45448267190433 34.76 52.54
2886 26 1 0 49.7453792062852 34.76 46.4
2887 26 2 0 50.84234471774549 34.76 47.03333333333333
2888 26 3 -0.6666666666666666 50.84234471774549 37.14 47.03333333333333
2889 26 4 0 51.93931022920578 34.76 47.666666666666664
2890 26 5 0.6666666666666666 51.93931022920578 32.379999999999995 47.666666666666664
2891 26 6 0 49.7453792062852 34.76 42.16
2892 26 1 0 53.03627574066607 34.76 48.3
2893 26 2 0 54.13324125212636 34.76 47.666666666666664
2894 26 3 -0.6666666666666666 54.13324125212636 32.379999999999995 47.666666666666664
2895 26 4 0 55.23020676358665 34.76 47.03333333333333
2896 26 5 0.6666666666666666 55.23020676358665 37.14 47.03333333333333
2897 26 6 0 53.03627574066607 34.76 52.54
2898 26 1 0 56.327172275046934 34.76 46.4
2899 26 2 0 57.424137786507224 34.76 47.03333333333333
2900 26 3 -0.6666666666666666 57.424137786507224 37.14 47.03333333333333
2901 26 4 0 58.521103297967514 34.76 47.666666666666664
2902 26 5 0.6666666666666666 58.521103297967514 32.379999999999995 47.666666666666664
2903 26 6 0 56.327172275046934 34.76 42.16
2904 26 1 0 59.6180688094278 34.76 48.3
2905 26 2 0 60.71503432088809 34.76 47.666666666666664
2906 26 3 -0.6666666666666666 60.71503432088809 32.379999999999995 47.666666666666664
2907 26 4 0 61.81199983234838 34.76 47.03333333333333
2908 26 5 0.6666666666666666 61.81199983234838 37.14 47.03333333333333
2909 26 6 0 59.6180688094278 34.76 52.54
2910 26 1 0 62.90896534380867 34.76 46.4
2911 26 2 0 64.00593085526896 34.76 47.03333333333333
2912 26 3 -0.6666666666666666 64.00593085526896 37.14 47.03333333333333
2913 26 4 0 65.10289636672924 34.76 47.666666666666664
2914 26 5 0.6666666666666666 65.10289636672924 32.379999999999995 47.666666666666664
2915 26 6 0 62.90896534380867 34.76 42.16
2916 26 1 0 66.19986187818954 34.76 48.3
2917 26 2 0 67.29682738964982 34.76 47.666666666666664
2918 26 3 -0.6666666666666666 67.29682738964982 32.379999999999995 47.666666666666664
2919 26 4 0 68.39379290111012 34.76 47.03333333333333
2920 26 5 0.6666666666666666 68.39379290111012 37.14 47.03333333333333
2921 26 6 0 66.19986187818954 34.76 52.54
2922 26 1 0 69.4907584125704 34.76 46.4
2923 26 2 0 70.58772392403068 34.76 47.03333333333333
2924 26 3 -0.6666666666666666 70.58772392403068 37.14 47.03333333333333
2925 26 4 0 71.68468943549098 34.76 47.666666666666664
2926 26 5 0.6666666666666666 71.68468943549098 32.379999999999995 47.666666666666664
2927 26 6 0 69.4907584125704 34.76 42.16
2928 26 1 0 72.78165494695126 34.76 48.3
2929 26 2 0 73.87862045841155 34.76 47.666666666666664
2930 26 3 -0.6666666666666666 73.87862045841155 32.379999999999995 47.666666666666664
2931 26 4 0 74.97558596987184 34.76 47.03333333333333
2932 26 5 0.6666666666666666 74.97558596987184 37.14 47.03333333333333
2933 26 6 0 72.78165494695126 34.76 52.54
2934 26 1 0 76.07255148133214 34.76 46.4
2935 26 2 0 77.16951699279242 34.76 47.03333333333333
2936 26 3 -0.6666666666666666 77.16951699279242 37.14 47.03333333333333
2937 26 4 0 78.26648250425272 34.76 47.666666666666664
2938 26 5 0.6666666666666666 78.26648250425272 32.379999999999995 47.666666666666664
2939 26 6 0 76.07255148133214 34.76 42.16
2940 26 1 0 79.363448015713 34.76 48.3
2941 26 2 0 80.46041352717329 34.76 47.666666666666664
2942 26 3 -0.6666666666666666 80.46041352717329 32.379999999999995 47.666666666666664
2943 26 4 0 81.55737903863358 34.76 47.03333333333333
2944 26 5 0.6666666666666666 81.55737903863358 37.14 47.03333333333333
2945 26 6 0 79.363448015713 34.76 52.54
2946 26 1 0 82.65434455009387 34.76 46.4
2947 26 2 0 83.75131006155415 34.76 47.03333333333333
2948 26 3 -0.6666666666666666 83.75131006155415 37.14 47.03333333333333
2949 26 4 0 84.84827557301445 34.76 47.666666666666664
2950 26 5 0.6666666666666666 84.84827557301445 32.379999999999995 47.666666666666664
2951 26 6 0 82.65434455009387 34.76 42.16
2952 26 1 0 85.94524108447473 34.76 48.3
2953 26 2 0 87.04220659593501 34.76 47.666666666666664
2954 26 3 -0.6666666666666666 87.04220659593501 32.379999999999995 47.666666666666664
2955 26 4 0 88.13917210739531 34.76 47.03333333333333
2956 26 5 0.6666666666666666 88.13917210739531 37.14 47.03333333333333
2957 26 6 0 85.94524108447473 34.76 52.54
2958 26 1 0 89.2361376188556 34.76 46.4
2959 26 2 0 90.33310313031588 34.76 47.03333333333333
2960 26 3 -0.6666666666666666 90.33310313031588 37.14 47.03333333333333
2961 26 4 0 91.43006864177617 34.76 47.666666666666664
2962 26 5 0.6666666666666666 91.43006864177617 32.379999999999995 47.666666666666664
2963 26 6 0 89.2361376188556 34.76 42.16
2964 26 1 0 92.52703415323647 34.76 48.3
2965 27 1 0 30.0 39.519999999999996 46.4
2966 27 2 0 31.09696551146029 39.519999999999996 47.03333333333333
2967 27 3 -0.6666666666666666 31.09696551146029 41.9 47.03333333333333
2968 27 4 0 32.19393102292058 39.519999999999996 47.666666666666664
2969 27 5 0.6666666666666666 32.19393102292058 37.13999999999999 47.666666666666664
2970 27 1 0 33.29089653438086 39.519999999999996 48.3
2971 27 2 0 34.38786204584115 39.519999999999996 47.666666666666664
2972 27 3 -0.6666666666666666 34.38786204584115 37.13999999999999 47.666666666666664
2973 27 4 0 35.48482755730144 39.519999999999996 47.03333333333333
2974 27 5 0.6666666666666666 35.48482755730144 41.9 47.03333333333333
2975 27 6 0 33.29089653438086 39.519999999999996 52.54
2976 27 1 0 36.58179306876173 39.519999999999996 46.4
2977 27 2 0 37.67875858022202 39.519999999999996 47.03333333333333
2978 27 3 -0.6666666666666666 37.67875858022202 41.9 47.03333333333333
2979 27 4 0 38.775724091682314 39.519999999999996 47.666666666666664
2980 27 5 0.6666666666666666 38.775724091682314 37.13999999999999 47.666666666666664
2981 27 6 0 36.58179306876173 39.519999999999996 42.16
2982 27 1 0 39.872689603142604 39.519999999999996 48.3
2983 27 2 0 40.969655114602894 39.519999999999996 47.666666666666664
2984 27 3 -0.6666666666666666 40.969655114602894 37.13999999999999 47.666666666666664
2985 27 4 0 42.066620626063184 39.519999999999996 47.03333333333333
2986 27 5 0.6666666666666666 42.066620626063184 41.9 47.03333333333333
2987 27 6 0 39.872689603142604 39.519999999999996 52.54
2988 27 1 0 43.16358613752347 39.519999999999996 46.4
2989 27 2 0 44.26055164898376 39.519999999999996 47.03333333333333
2990 27 3 -0.6666666666666666 44.26055164898376 41.9 47.03333333333333
2991 27 4 0 45.35751716044405 39.519999999999996 47.666666666666664
2992 27 5 0.6666666666666666 45.35751716044405 37.13999999999999 47.666666666666664
2993 27 6 0 43.16358613752347 39.519999999999996 42.16
2994 27 1 0 46.45448267190433 39.519999999999996 48.3
2995 27 2 0 47.55144818336462 39.519999999999996 47.666666666666664
2996 27 3 -0.6666666666666666 47.55144818336462 37.13999999999999 47.666666666666664
2997 27 4 0 48.64841369482491 39.519999999999996 47.03333333333333
2998 27 5 0.6666666666666666 48.64841369482491 41.9 47.03333333333333
2999 27 6 0 46.45448267190433 39.519999999999996 52.54
3000 27 1 0 49.7453792062852 39.519999999999996 46.4
3001 27 2 0 50.84234471774549 39.519999999999996 47.03333333333333
3002 27 3 -0.6666666666666666 50.84234471774549 41.9 47.03333333333333
3003 27 4 0 51.93931022920578 39.519999999999996 47.666666666666664
3004 27 5 0.6666666666666666 51.93931022920578 37.13999999999999 47.666666666666664
3005 27 6 0 49.7453792062852 39.519999999999996 42.16
3006 27 1 0 53.03627574066607 39.519999999999996 48.3
3007 27 2 0 54.13324125212636 39.519999999999996 47.666666666666664
3008 27 3 -0.6666666666666666 54.13324125212636 37.13999999999999 47.666666666666664
3009 27 4 0 55.23020676358665 39.519999999999996 47.03333333333333
3010 27 5 0.6666666666666666 55.23020676358665 41.9 47.03333333333333
3011 27 6 0 53.03627574066607 39.519999999999996 52.54
3012 27 1 0 56.327172275046934 39.519999999999996 46.4
3013 27 2 0 57.424137786507224 39.519999999999996 47.03333333333333
3014 27 3 -0.6666666666666666 57.424137786507224 41.9 47.03333333333333
3015 27 4 0 58.521103297967514 39.519999999999996 47.666666666666664
3016 27 5 0.6666666666666666 58.521103297967514 37.13999999999999 47.666666666666664
3017 27 6 0 56.327172275046934 39.519999999999996 42.16
3018 27 1 0 59.6180688094278 39.519999999999996 48.3
3019 27 2 0 60.71503432088809 39.519999999999996 47.666666666666664
3020 27 3 -0.6666666666666666 60.71503432088809 37.13999999999999 47.666666666666664
3021 27 4 0 61.81199983234838 39.519999999999996 47.03333333333333
3022 27 5 0.6666666666666666 61.81199983234838 41.9 47.03333333333333
3023 27 6 0 59.6180688094278 39.519999999999996 52.54
3024 27 1 0 62.90896534380867 39.519999999999996 46.4
3025 27 2 0 64.00593085526896 39.519999999999996 47.03333333333333
3026 27 3 -0.6666666666666666 64.00593085526896 41.9 47.03333333333333
3027 27 4 0 65.10289636672924 39.519999999999996 47.666666666666664
3028 27 5 0.6666666666666666 65.10289636672924 37.13999999999999 47.666666666666664
3029 27 6 0 62.90896534380867 39.519999999999996 42.16
3030 27 1 0 66.19986187818954 39.519999999999996 48.3
3031 27 2 0 67.29682738964982 39.519999999999996 47.666666666666664
3032 27 3 -0.6666666666666666 67.29682738964982 37.13999999999999 47.666666666666664
3033 27 4 0 68.39379290111012 39.519999999999996 47.03333333333333
3034 27 5 0.6666666666666666 68.39379290111012 41.9 47.03333333333333
3035 27 6 0 66.19986187818954 39.519999999999996 52.54
3036 27 1 0 69.4907584125704 39.519999999999996 46.4
3037 27 2 0 70.58772392403068 39.519999999999996 47.03333333333333
3038 27 3 -0.6666666666666666 70.58772392403068 41.9 47.03333333333333
3039 27 4 0 71.68468943549098 39.519999999999996 47.666666666666664
3040 27 5 0.6666666666666666 71.68468943549098 37.13999999999999 47.666666666666664
3041 27 6 0 69.4907584125704 39.519999999999996 42.16
3042 27 1 0 72.78165494695126 39.519999999999996 48.3
3043 27 2 0 73.87862045841155 39.519999999999996 47.666666666666664
3044 27 3 -0.6666666666666666 73.87862045841155 37.13999999999999 47.666666666666664
3045 27 4 0 74.97558596987184 39.519999999999996 47.03333333333333
3046 27 5 0.6666666666666666 74.97558596987184 41.9 47.03333333333333
3047 27 6 0 72.78165494695126 39.519999999999996 52.54
3048 27 1 0 76.07255148133214 39.519999999999996 46.4
3049 27 2 0 77.16951699279242 39.519999999999996 47.03333333333333
3050 27 3 -0.6666666666666666 77.16951699279242 41.9 47.03333333333333
3051 27 4 0 78.26648250425272 39.519999999999996 47.666666666666664
3052 27 5 0.6666666666666666 78.26648250425272 37.13999999999999 47.666666666666664
3053 27 6 0 76.07255148133214 39.519999999999996 42.16
3054 27 1 0 79.363448015713 39.519999999999996 48.3
3055 27 2 0 80.46041352717329 39.519999999999996 47.666666666666664
3056 27 3 -0.6666666666666666 80.46041352717329 37.13999999999999 47.666666666666664
3057 27 4 0 81.55737903863358 39.519999999999996 47.03333333333333
3058 27 5 0.6666666666666666 81.55737903863358 41.9 47.03333333333333
3059 27 6 0 79.363448015713 39.519999999999996 52.54
3060 27 1 0 82.65434455009387 39.519999999999996 46.4
3061 27 2 0 83.75131006155415 39.519999999999996 47.03333333333333
3062 27 3 -0.6666666666666666 83.75131006155415 41.9 47.03333333333333
3063 27 4 0 84.84827557301445 39.519999999999996 47.666666666666664
3064 27 5 0.6666666666666666 84.84827557301445 37.13999999999999 47.666666666666664
3065 27 6 0 82.65434455009387 39.519999999999996 42.16
3066 27 1 0 85.94524108447473 39.519999999999996 48.3
3067 27 2 0 87.04220659593501 39.519999999999996 47.666666666666664
3068 27 3 -0.6666666666666666 87.04220659593501 37.13999999999999 47.666666666666664
3069 27 4 0 88.13917210739531 39.519999999999996 47.03333333333333
3070 27 5 0.6666666666666666 88.13917210739531 41.9 47.03333333333333
3071 27 6 0 85.94524108447473 39.519999999999996 52.54
3072 27 1 0 89.2361376188556 39.519999999999996 46.4
3073 27 2 0 90.33310313031588 39.519999999999996 47.03333333333333
3074 27 3 -0.6666666666666666 90.33310313031588 41.9 47.03333333333333
3075 27 4 0 91.43006864177617 39.519999999999996 47.666666666666664
3076 27 5 0.6666666666666666 91.43006864177617 37.13999999999999 47.666666666666664
3077 27 6 0 89.2361376188556 39.519999999999996 42.16
3078 27 1 0 92.52703415323647 39.519999999999996 48.3
3079 28 1 0 30.0 44.28 46.4
3080 28 2 0 31.09696551146029 44.28 47.03333333333333
3081 28 3 -0.6666666666666666 31.09696551146029 46.660000000000004 47.03333333333333
3082 28 4 0 32.19393102292058 44.28 47.666666666666664
3083 28 5 0.6666666666666666 32.19393102292058 41.9 47.666666666666664
3084 28 1 0 33.29089653438086 44.28 48.3
3085 28 2 0 34.38786204584115 44.28 47.666666666666664
3086 28 3 -0.6666666666666666 34.38786204584115 41.9 47.666666666666664
3087 28 4 0 35.48482755730144 44.28 47.03333333333333
3088 28 5 0.6666666666666666 35.48482755730144 46.660000000000004 47.03333333333333
3089 28 6 0 33.29089653438086 44.28 52.54
3090 28 1 0 36.58179306876173 44.28 46.4
3091 28 2 0 37.67875858022202 44.28 47.03333333333333
3092 28 3 -0.6666666666666666 37.67875858022202 46.660000000000004 47.03333333333333
3093 28 4 0 38.775724091682314 44.28 47.666666666666664
3094 28 5 0.6666666666666666 38.775724091682314 41.9 47.666666666666664
3095 28 6 0 36.58179306876173 44.28 42.16
3096 28 1 0 39.872689603142604 44.28 48.3
3097 28 2 0 40.969655114602894 44.28 47.666666666666664
3098 28 3 -0.6666666666666666 40.969655114602894 41.9 47.666666666666664
3099 28 4 0 42.066620626063184 44.28 47.03333333333333
3100 28 5 0.6666666666666666 42.066620626063184 46.660000000000004 47.03333333333333
3101 28 6 0 39.872689603142604 44.28 52.54
3102 28 1 0 43.16358613752347 44.28 46.4
3103 28 2 0 44.26055164898376 44.28 47.03333333333333
3104 28 3 -0.6666666666666666 44.26055164898376 46.660000000000004 47.03333333333333
3105 28 4 0 45.35751716044405 44.28 47.666666666666664
3106 28 5 0.6666666666666666 45.35751716044405 41.9 47.666666666666664
3107 28 6 0 43.16358613752347 44.28 42.16
3108 28 1 0 46.45448267190433 44.28 48.3
3109 28 2 0 47.55144818336462 44.28 47.666666666666664
3110 28 3 -0.6666666666666666 47.55144818336462 41.9 47.666666666666664
3111 28 4 0 48.64841369482491 44.28 47.03333333333333
3112 28 5 0.6666666666666666 48.64841369482491 46.660000000000004 47.03333333333333
3113 28 6 0 46.45448267190433 44.28 52.54
3114 28 1 0 49.7453792062852 44.28 46.4
3115 28 2 0 50.84234471774549 44.28 47.03333333333333
3116 28 3 -0.6666666666666666 50.84234471774549 46.660000000000004 47.03333333333333
3117 28 4 0 51.93931022920578 44.28 47.666666666666664
3118 28 5 0.6666666666666666 51.93931022920578 41.9 47.666666666666664
3119 28 6 0 49.7453792062852 44.28 42.16
3120 28 1 0 53.03627574066607 44.28 48.3
3121 28 2 0 54.13324125212636 44.28 47.666666666666664
3122 28 3 -0.6666666666666666 54.13324125212636 41.9 47.666666666666664
3123 28 4 0 55.23020676358665 44.28 47.03333333333333
3124 28 5 0.6666666666666666 55.23020676358665 46.660000000000004 47.03333333333333
3125 28 6 0 53.03627574066607 44.28 52.54
3126 28 1 0 56.327172275046934 44.28 46.4
3127 28 2 0 57.424137786507224 44.28 47.03333333333333
3128 28 3 -0.6666666666666666 57.424137786507224 46.660000000000004 47.03333333333333
3129 28 4 0 58.521103297967514 44.28 47.666666666666664
3130 28 5 0.6666666666666666 58.521103297967514 41.9 47.666666666666664
3131 28 6 0 56.327172275046934 44.28 42.16
3132 28 1 0 59.6180688094278 44.28 48.3
3133 28 2 0 60.71503432088809 44.28 47.666666666666664
3134 28 3 -0.6666666666666666 60.71503432088809 41.9 47.666666666666664
3135 28 4 0 61.81199983234838 44.28 47.03333333333333
3136 28 5 0.6666666666666666 61.81199983234838 46.660000000000004 47.03333333333333
3137 28 6 0 59.6180688094278 44.28 52.54
3138 28 1 0 62.90896534380867 44.28 46.4
3139 28 2 0 64.00593085526896 44.28 47.03333333333333
3140 28 3 -0.6666666666666666 64.00593085526896 46.660000000000004 47.03333333333333
3141 28 4 0 65.10289636672924 44.28 47.666666666666664
3142 28 5 0.6666666666666666 65.10289636672924 41.9 47.666666666666664
3143 28 6 0 62.90896534380867 44.28 42.16
3144 28 1 0 66.19986187818954 44.28 48.3
3145 28 2 0 67.29682738964982 44.28 47.666666666666664
3146 28 3 -0.6666666666666666 67.29682738964982 41.9 47.666666666666664
3147 28 4 0 68.39379290111012 44.28 47.03333333333333
3148 28 5 0.6666666666666666 68.39379290111012 46.660000000000004 47.03333333333333
3149 28 6 0 66.19986187818954 44.28 52.54
3150 28 1 0 69.4907584125704 44.28 46.4
3151 28 2 0 70.58772392403068 44.28 47.03333333333333
3152 28 3 -0.6666666666666666 70.58772392403068 46.660000000000004 47.03333333333333
3153 28 4 0 71.68468943549098 44.28 47.666666666666664
3154 28 5 0.6666666666666666 71.68468943549098 41.9 47.666666666666664
3155 28 6 0 69.4907584125704 44.28 42.16
3156 28 1 0 72.78165494695126 44.28 48.3
3157 28 2 0 73.87862045841155 44.28 47.666666666666664
3158 28 3 -0.6666666666666666 73.87862045841155 41.9 47.666666666666664
3159 28 4 0 74.97558596987184 44.28 47.03333333333333
3160 28 5 0.6666666666666666 74.97558596987184 46.660000000000004 47.03333333333333
3161 28 6 0 72.78165494695126 44.28 52.54
3162 28 1 0 76.07255148133214 44.28 46.4
3163 28 2 0 77.16951699279242 44.28 47.03333333333333
3164 28 3 -0.6666666666666666 77.16951699279242 46.660000000000004 47.03333333333333
3165 28 4 0 78.26648250425272 44.28 47.666666666666664
3166 28 5 0.6666666666666666 78.26648250425272 41.9 47.666666666666664
3167 28 6 0 76.07255148133214 44.28 42.16
3168 28 1 0 79.363448015713 44.28 48.3
3169 28 2 0 80.46041352717329 44.28 47.666666666666664
3170 28 3 -0.6666666666666666 80.46041352717329 41.9 47.666666666666664
3171 28 4 0 81.55737903863358 44.28 47.03333333333333
3172 28 5 0.6666666666666666 81.55737903863358 46.660000000000004 47.03333333333333
3173 28 6 0 79.363448015713 44.28 52.54
3174 28 1 0 82.65434455009387 44.28 46.4
3175 28 2 0 83.75131006155415 44.28 47.03333333333333
3176 28 3 -0.6666666666666666 83.75131006155415 46.660000000000004 47.03333333333333
3177 28 4 0 84.84827557301445 44.28 47.666666666666664
3178 28 5 0.6666666666666666 84.84827557301445 41.9 47.666666666666664
3179 28 6 0 82.65434455009387 44.28 42.16
3180 28 1 0 85.94524108447473 44.28 48.3
3181 28 2 0 87.04220659593501 44.28 47.666666666666664
3182 28 3 -0.6666666666666666 87.04220659593501 41.9 47.666666666666664
3183 28 4 0 88.13917210739531 44.28 47.03333333333333
3184 28 5 0.6666666666666666 88.13917210739531 46.660000000000004 47.03333333333333
3185 28 6 0 85.94524108447473 44.28 52.54
3186 28 1 0 89.2361376188556 44.28 46.4
3187 28 2 0 90.33310313031588 44.28 47.03333333333333
3188 28 3 -0.6666666666666666 90.33310313031588 46.660000000000004 47.03333333333333
3189 28 4 0 91.43006864177617 44.28 47.666666666666664
3190 28 5 0.6666666666666666 91.43006864177617 41.9 47.666666666666664
3191 28 6 0 89.2361376188556 44.28 42.16
3192 28 1 0 92.52703415323647 44.28 48.3
3193 29 1 0 30.0 49.04 46.4
3194 29 2 0 31.09696551146029 49.04 47.03333333333333
3195 29 3 -0.6666666666666666 31.09696551146029 51.42 47.03333333333333
3196 29 4 0 32.19393102292058 49.04 47.666666666666664
3197 29 5 0.6666666666666666 32.19393102292058 46.66 47.666666666666664
3198 29 1 0 33.29089653438086 49.04 48.3
3199 29 2 0 34.38786204584115 49.04 47.666666666666664
3200 29 3 -0.6666666666666666 34.38786204584115 46.66 47.666666666666664
3201 29 4 0 35.48482755730144 49.04 47.03333333333333
3202 29 5 0.6666666666666666 35.48482755730144 51.42 47.03333333333333
3203 29 6 0 33.29089653438086 49.04 52.54
3204 29 1 0 36.58179306876173 49.04 46.4
3205 29 2 0 37.67875858022202 49.04 47.03333333333333
3206 29 3 -0.6666666666666666 37.67875858022202 51.42 47.03333333333333
3207 29 4 0 38.775724091682314 49.04 47.666666666666664
3208 29 5 0.6666666666666666 38.775724091682314 46.66 47.666666666666664
3209 29 6 0 36.58179306876173 49.04 42.16
3210 29 1 0 39.872689603142604 49.04 48.3
3211 29 2 0 40.969655114602894 49.04 47.666666666666664
3212 29 3 -0.6666666666666666 40.969655114602894 46.66 47.666666666666664
3213 29 4 0 42.066620626063184 49.04 47.03333333333333
3214 29 5 0.6666666666666666 42.066620626063184 51.42 47.03333333333333
3215 29 6 0 39.872689603142604 49.04 52.54
3216 29 1 0 43.16358613752347 49.04 46.4
3217 29 2 0 44.26055164898376 49.04 47.03333333333333
3218 29 3 -0.6666666666666666 44.26055164898376 51.42 47.03333333333333
3219 29 4 0 45.35751716044405 49.04 47.666666666666664
3220 29 5 0.6666666666666666 45.35751716044405 46.66 47.666666666666664
3221 29 6 0 43.16358613752347 49.04 42.16
3222 29 1 0 46.45448267190433 49.04 48.3
3223 29 2 0 47.55144818336462 49.04 47.666666666666664
3224 29 3 -0.6666666666666666 47.55144818336462 46.66 47.666666666666664
3225 29 4 0 48.64841369482491 49.04 47.03333333333333
3226 29 5 0.6666666666666666 48.64841369482491 51.42 47.03333333333333
3227 29 6 0 46.45448267190433 49.04 52.54
3228 29 1 0 49.7453792062852 49.04 46.4
3229 29 2 0 50.84234471774549 49.04 47.03333333333333
3230 29 3 -0.6666666666666666 50.84234471774549 51.42 47.03333333333333
3231 29 4 0 51.93931022920578 49.04 47.666666666666664
3232 29 5 0.6666666666666666 51.93931022920578 46.66 47.666666666666664
3233 29 6 0 49.7453792062852 49.04 42.16
3234 29 1 0 53.03627574066607 49.04 48.3
3235 29 2 0 54.13324125212636 49.04 47.666666666666664
3236 29 3 -0.6666666666666666 54.13324125212636 46.66 47.666666666666664
3237 29 4 0 55.23020676358665 49.04 47.03333333333333
3238 29 5 0.6666666666666666 55.23020676358665 51.42 47.03333333333333
3239 29 6 0 53.03627574066607 49.04 52.54
3240 29 1 0 56.327172275046934 49.04 46.4
3241 29 2 0 57.424137786507224 49.04 47.03333333333333
3242 29 3 -0.6666666666666666 57.424137786507224 51.42 47.03333333333333
3243 29 4 0 58.521103297967514 49.04 47.666666666666664
3244 29 5 0.6666666666666666 58.521103297967514 46.66 47.666666666666664
3245 29 6 0 56.327172275046934 49.04 42.16
3246 29 1 0 59.6180688094278 49.04 48.3
3247 29 2 0 60.71503432088809 49.04 47.666666666666664
3248 29 3 -0.6666666666666666 60.71503432088809 46.66 47.666666666666664
3249 29 4 0 61.81199983234838 49.04 47.03333333333333
3250 29 5 0.6666666666666666 61.81199983234838 51.42 47.03333333333333
3251 29 6 0 59.6180688094278 49.04 52.54
3252 29 1 0 62.90896534380867 49.04 46.4
3253 29 2 0 64.00593085526896 49.04 47.03333333333333
3254 29 3 -0.6666666666666666 64.00593085526896 51.42 47.03333333333333
3255 29 4 0 65.10289636672924 49.04 47.666666666666664
3256 29 5 0.6666666666666666 65.10289636672924 46.66 47.666666666666664
3257 29 6 0 62.90896534380867 49.04 42.16
3258 29 1 0 66.19986187818954 49.04 48.3
3259 29 2 0 67.29682738964982 49.04 47.666666666666664
3260 29 3 -0.6666666666666666 67.29682738964982 46.66 47.666666666666664
3261 29 4 0 68.39379290111012 49.04 47.03333333333333
3262 29 5 0.6666666666666666 68.39379290111012 51.42 47.03333333333333
3263 29 6 0 66.19986187818954 49.04 52.54
3264 29 1 0 69.4907584125704 49.04 46.4
3265 29 2 0 70.58772392403068 49.04 47.03333333333333
3266 29 3 -0.6666666666666666 70.58772392403068 51.42 47.03333333333333
3267 29 4 0 71.68468943549098 49.04 47.666666666666664
3268 29 5 0.6666666666666666 71.68468943549098 46.66 47.666666666666664
3269 29 6 0 69.4907584125704 49.04 42.16
3270 29 1 0 72.78165494695126 49.04 48.3
3271 29 2 0 73.87862045841155 49.04 47.666666666666664
3272 29 3 -0.6666666666666666 73.87862045841155 46.66 47.666666666666664
3273 29 4 0 74.97558596987184 49.04 47.03333333333333
3274 29 5 0.6666666666666666 74.97558596987184 51.42 47.03333333333333
3275 29 6 0 72.78165494695126 49.04 52.54
3276 29 1 0 76.07255148133214 49.04 46.4
3277 29 2 0 77.16951699279242 49.04 47.03333333333333
3278 29 3 -0.6666666666666666 77.16951699279242 51.42 47.03333333333333
3279 29 4 0 78.26648250425272 49.04 47.666666666666664
3280 29 5 0.6666666666666666 78.26648250425272 46.66 47.666666666666664
3281 29 6 0 76.07255148133214 49.04 42.16
3282 29 1 0 79.363448015713 49.04 48.3
3283 29 2 0 80.46041352717329 49.04 47.666666666666664
3284 29 3 -0.6666666666666666 80.46041352717329 46.66 47.666666666666664
3285 29 4 0 81.55737903863358 49.04 47.03333333333333
3286 29 5 0.6666666666666666 81.55737903863358 51.42 47.03333333333333
3287 29 6 0 79.363448015713 49.04 52.54
3288 29 1 0 82.65434455009387 49.04 46.4
3289 29 2 0 83.75131006155415 49.04 47.03333333333333
3290 29 3 -0.6666666666666666 83.75131006155415 51.42 47.03333333333333
3291 29 4 0 84.84827557301445 49.04 47.666666666666664
3292 29 5 0.6666666666666666 84.84827557301445 46.66 47.666666666666664
3293 29 6 0 82.65434455009387 49.04 42.16
3294 29 1 0 85.94524108447473 49.04 48.3
3295 29 2 0 87.04220659593501 49.04 47.666666666666664
3296 29 3 -0.6666666666666666 87.04220659593501 46.66 47.666666666666664
3297 29 4 0 88.13917210739531 49.04 47.03333333333333
3298 29 5 0.6666666666666666 88.13917210739531 51.42 47.03333333333333
3299 29 6 0 85.94524108447473 49.04 52.54
3300 29 1 0 89.2361376188556 49.04 46.4
3301 29 2 0 90.33310313031588 49.04 47.03333333333333
3302 29 3 -0.6666666666666666 90.33310313031588 51.42 47.03333333333333
3303 29 4 0 91.43006864177617 49.04 47.666666666666664
3304 29 5 0.6666666666666666 91.43006864177617 46.66 47.666666666666664
3305 29 6 0 89.2361376188556 49.04 42.16
3306 29 1 0 92.52703415323647 49.04 48.3
3307 30 1 0 30.0 53.8 46.4
3308 30 2 0 31.09696551146029 53.8 47.03333333333333
3309 30 3 -0.6666666666666666 31.09696551146029 56.18 47.03333333333333
3310 30 4 0 32.19393102292058 53.8 47.666666666666664
3311 30 5 0.6666666666666666 32.19393102292058 51.419999999999995 47.666666666666664
3312 30 1 0 33.29089653438086 53.8 48.3
3313 30 2 0 34.38786204584115 53.8 47.666666666666664
3314 30 3 -0.6666666666666666 34.38786204584115 51.419999999999995 47.666666666666664
3315 30 4 0 35.48482755730144 53.8 47.03333333333333
3316 30 5 0.6666666666666666 35.48482755730144 56.18 47.03333333333333
3317 30 6 0 33.29089653438086 53.8 52.54
3318 30 1 0 36.58179306876173 53.8 46.4
3319 30 2 0 37.67875858022202 53.8 47.03333333333333
3320 30 3 -0.6666666666666666 37.67875858022202 56.18 47.03333333333333
3321 30 4 0 38.775724091682314 53.8 47.666666666666664
3322 30 5 0.6666666666666666 38.775724091682314 51.419999999999995 47.666666666666664
3323 30 6 0 36.58179306876173 53.8 42.16
3324 30 1 0 39.872689603142604 53.8 48.3
3325 30 2 0 40.969655114602894 53.8 47.666666666666664
3326 30 3 -0.6666666666666666 40.969655114602894 51.419999999999995 47.666666666666664
3327 30 4 0 42.066620626063184 53.8 47.03333333333333
3328 30 5 0.6666666666666666 42.066620626063184 56.18 47.03333333333333
3329 30 6 0 39.872689603142604 53.8 52.54
3330 30 1 0 43.16358613752347 53.8 46.4
3331 30 2 0 44.26055164898376 53.8 47.03333333333333
3332 30 3 -0.6666666666666666 44.26055164898376 56.18 47.03333333333333
3333 30 4 0 45.35751716044405 53.8 47.666666666666664
3334 30 5 0.6666666666666666 45.35751716044405 51.419999999999995 47.666666666666664
3335 30 6 0 43.16358613752347 53.8 42.16
3336 30 1 0 46.45448267190433 53.8 48.3
3337 30 2 0 47.55144818336462 53.8 47.666666666666664
3338 30 3 -0.6666666666666666 47.55144818336462 51.419999999999995 47.666666666666664
3339 30 4 0 48.64841369482491 53.8 47.03333333333333
3340 30 5 0.6666666666666666 48.64841369482491 56.18 47.03333333333333
3341 30 6 0 46.45448267190433 53.8 52.54
3342 30 1 0 49.7453792062852 53.8 46.4
3343 30 2 0 50.84234471774549 53.8 47.03333333333333
3344 30 3 -0.6666666666666666 50.84234471774549 56.18 47.03333333333333
3345 30 4 0 51.93931022920578 53.8 47.666666666666664
3346 30 5 0.6666666666666666 51.93931022920578 51.419999999999995 47.666666666666664
3347 30 6 0 49.7453792062852 53.8 42.16
3348 30 1 0 53.03627574066607 53.8 48.3
3349 30 2 0 54.13324125212636 53.8 47.666666666666664
3350 30 3 -0.6666666666666666 54.13324125212636 51.419999999999995 47.666666666666664
3351 30 4 0 55.23020676358665 53.8 47.03333333333333
3352 30 5 0.6666666666666666 55.23020676358665 56.18 47.03333333333333
3353 30 6 0 53.03627574066607 53.8 52.54
3354 30 1 0 56.327172275046934 53.8 46.4
3355 30 2 0 57.424137786507224 53.8 47.03333333333333
3356 30 3 -0.6666666666666666 57.424137786507224 56.18 47.03333333333333
3357 30 4 0 58.521103297967514 53.8 47.666666666666664
3358 30 5 0.6666666666666666 58.521103297967514 51.419999999999995 47.666666666666664
3359 30 6 0 56.327172275046934 53.8 42.16
3360 30 1 0 59.6180688094278 53.8 48.3
3361 30 2 0 60.71503432088809 53.8 47.666666666666664
3362 30 3 -0.6666666666666666 60.71503432088809 51.419999999999995 47.666666666666664
3363 30 4 0 61.81199983234838 53.8 47.03333333333333
3364 30 5 0.6666666666666666 61.81199983234838 56.18 47.03333333333333
3365 30 6 0 59.6180688094278 53.8 52.54
3366 30 1 0 62.90896534380867 53.8 46.4
3367 30 2 0 64.00593085526896 53.8 47.03333333333333
3368 30 3 -0.6666666666666666 64.00593085526896 56.18 47.03333333333333
3369 30 4 0 65.10289636672924 53.8 47.666666666666664
3370 30 5 0.6666666666666666 65.10289636672924 51.419999999999995 47.666666666666664
3371 30 6 0 62.90896534380867 53.8 42.16
3372 30 1 0 66.19986187818954 53.8 48.3
3373 30 2 0 67.29682738964982 53.8 47.666666666666664
3374 30 3 -0.6666666666666666 67.29682738964982 51.419999999999995 47.666666666666664
3375 30 4 0 68.39379290111012 53.8 47.03333333333333
3376 30 5 0.6666666666666666 68.39379290111012 56.18 47.03333333333333
3377 30 6 0 66.19986187818954 53.8 52.54
3378 30 1 0 69.4907584125704 53.8 46.4
3379 30 2 0 70.58772392403068 53.8 47.03333333333333
3380 30 3 -0.6666666666666666 70.58772392403068 56.18 47.03333333333333
3381 30 4 0 71.68468943549098 53.8 47.666666666666664
3382 30 5 0.6666666666666666 71.68468943549098 51.419999999999995 47.666666666666664
3383 30 6 0 69.4907584125704 53.8 42.16
3384 30 1 0 72.78165494695126 53.8 48.3
3385 30 2 0 73.87862045841155 53.8 47.666666666666664
3386 30 3 -0.6666666666666666 73.87862045841155 51.419999999999995 47.666666666666664
3387 30 4 0 74.97558596987184 53.8 47.03333333333333
3388 30 5 0.6666666666666666 74.97558596987184 56.18 47.03333333333333
3389 30 6 0 72.78165494695126 53.8 52.54
3390 30 1 0 76.07255148133214 53.8 46.4
3391 30 2 0 77.16951699279242 53.8 47.03333333333333
3392 30 3 -0.6666666666666666 77.16951699279242 56.18 47.03333333333333
3393 30 4 0 78.26648250425272 53.8 47.666666666666664
3394 30 5 0.6666666666666666 78.26648250425272 51.419999999999995 47.666666666666664
3395 30 6 0 76.07255148133214 53.8 42.16
3396 30 1 0 79.363448015713 53.8 48.3
3397 30 2 0 80.46041352717329 53.8 47.666666666666664
3398 30 3 -0.6666666666666666 80.46041352717329 51.419999999999995 47.666666666666664
3399 30 4 0 81.55737903863358 53.8 47.03333333333333
3400 30 5 0.6666666666666666 81.55737903863358 56.18 47.03333333333333
3401 30 6 0 79.363448015713 53.8 52.54
3402 30 1 0 82.65434455009387 53.8 46.4
3403 30 2 0 83.75131006155415 53.8 47.03333333333333
3404 30 3 -0.6666666666666666 83.75131006155415 56.18 47.03333333333333
3405 30 4 0 84.84827557301445 53.8 47.666666666666664
3406 30 5 0.6666666666666666 84.84827557301445 51.419999999999995 47.666666666666664
3407 30 6 0 82.65434455009387 53.8 42.16
3408 30 1 0 85.94524108447473 53.8 48.3
3409 30 2 0 87.04220659593501 53.8 47.666666666666664
3410 30 3 -0.6666666666666666 87.04220659593501 51.419999999999995 47.666666666666664
3411 30 4 0 88.13917210739531 53.8 47.03333333333333
3412 30 5 0.6666666666666666 88.13917210739531 56.18 47.03333333333333
3413 30 6 0 85.94524108447473 53.8 52.54
3414 30 1 0 89.2361376188556 53.8 46.4
3415 30 2 0 90.33310313031588 53.8 47.03333333333333
3416 30 3 -0.6666666666666666 90.33310313031588 56.18 47.03333333333333
3417 30 4 0 91.43006864177617 53.8 47.666666666666664
3418 30 5 0.6666666666666666 91.43006864177617 51.419999999999995 47.666666666666664
3419 30 6 0 89.2361376188556 53.8 42.16
3420 30 1 0 92.52703415323647 53.8 48.3
3421 31 1 0 30.0 58.56 46.4
3422 31 2 0 31.09696551146029 58.56 47.03333333333333
3423 31 3 -0.6666666666666666 31.09696551146029 60.940000000000005 47.03333333333333
3424 31 4 0 32.19393102292058 58.56 47.666666666666664
3425 31 5 0.6666666666666666 32.19393102292058 56.18 47.666666666666664
3426 31 1 0 33.29089653438086 58.56 48.3
3427 31 2 0 34.38786204584115 58.56 47.666666666666664
3428 31 3 -0.6666666666666666 34.38786204584115 56.18 47.666666666666664
3429 31 4 0 35.48482755730144 58.56 47.03333333333333
3430 31 5 0.6666666666666666 35.48482755730144 60.940000000000005 47.03333333333333
3431 31 6 0 33.29089653438086 58.56 52.54
3432 31 1 0 36.58179306876173 58.56 46.4
3433 31 2 0 37.67875858022202 58.56 47.03333333333333
3434 31 3 -0.6666666666666666 37.67875858022202 60.940000000000005 47.03333333333333
3435 31 4 0 38.775724091682314 58.56 47.666666666666664
3436 31 5 0.6666666666666666 38.775724091682314 56.18 47.666666666666664
3437 31 6 0 36.58179306876173 58.56 42.16
3438 31 1 0 39.872689603142604 58.56 48.3
3439 31 2 0 40.969655114602894 58.56 47.666666666666664
3440 31 3 -0.6666666666666666 40.969655114602894 56.18 47.666666666666664
3441 31 4 0 42.066620626063184 58.56 47.03333333333333
3442 31 5 0.6666666666666666 42.066620626063184 60.940000000000005 47.03333333333333
3443 31 6 0 39.872689603142604 58.56 52.54
3444 31 1 0 43.16358613752347 58.56 46.4
3445 31 2 0 44.26055164898376 58.56 47.03333333333333
3446 31 3 -0.6666666666666666 44.26055164898376 60.940000000000005 47.03333333333333
3447 31 4 0 45.35751716044405 58.56 47.666666666666664
3448 31 5 0.6666666666666666 45.35751716044405 56.18 47.666666666666664
3449 31 6 0 43.16358613752347 58.56 42.16
3450 31 1 0 46.45448267190433 58.56 48.3
3451 31 2 0 47.55144818336462 58.56 47.666666666666664
3452 31 3 -0.6666666666666666 47.55144818336462 56.18 47.666666666666664
3453 31 4 0 48.64841369482491 58.56 47.03333333333333
3454 31 5 0.6666666666666666 48.64841369482491 60.940000000000005 47.03333333333333
3455 31 6 0 46.45448267190433 58.56 52.54
3456 31 1 0 49.7453792062852 58.56 46.4
3457 31 2 0 50.84234471774549 58.56 47.03333333333333
3458 31 3 -0.6666666666666666 50.84234471774549 60.940000000000005 47.03333333333333
3459 31 4 0 51.93931022920578 58.56 47.666666666666664
3460 31 5 0.6666666666666666 51.93931022920578 56.18 47.666666666666664
3461 31 6 0 49.7453792062852 58.56 42.16
3462 31 1 0 53.03627574066607 58.56 48.3
3463 31 2 0 54.13324125212636 58.56 47.666666666666664
3464 31 3 -0.6666666666666666 54.13324125212636 56.18 47.666666666666664
3465 31 4 0 55.23020676358665 58.56 47.03333333333333
3466 31 5 0.6666666666666666 55.23020676358665 60.940000000000005 47.03333333333333
3467 31 6 0 53.03627574066607 58.56 52.54
3468 31 1 0 56.327172275046934 58.56 46.4
3469 31 2 0 57.424137786507224 58.56 47.03333333333333
3470 31 3 -0.6666666666666666 57.424137786507224 60.940000000000005 47.03333333333333
3471 31 4 0 58.521103297967514 58.56 47.666666666666664
3472 31 5 0.6666666666666666 58.521103297967514 56.18 47.666666666666664
3473 31 6 0 56.327172275046934 58.56 42.16
3474 31 1 0 59.6180688094278 58.56 48.3
3475 31 2 0 60.71503432088809 58.56 47.666666666666664
3476 31 3 -0.6666666666666666 60.71503432088809 56.18 47.666666666666664
3477 31 4 0 61.81199983234838 58.56 47.03333333333333
3478 31 5 0.6666666666666666 61.81199983234838 60.940000000000005 47.03333333333333
3479 31 6 0 59.6180688094278 58.56 52.54
3480 31 1 0 62.90896534380867 58.56 46.4
3481 31 2 0 64.00593085526896 58.56 47.03333333333333
3482 31 3 -0.6666666666666666 64.00593085526896 60.940000000000005 47.03333333333333
3483 31 4 0 65.10289636672924 58.56 47.666666666666664
3484 31 5 0.6666666666666666 65.10289636672924 56.18 47.666666666666664
3485 31 6 0 62.90896534380867 58.56 42.16
3486 31 1 0 66.19986187818954 58.56 48.3
3487 31 2 0 67.29682738964982 58.56 47.666666666666664
3488 31 3 -0.6666666666666666 67.29682738964982 56.18 47.666666666666664
3489 31 4 0 68.39379290111012 58.56 47.03333333333333
3490 31 5 0.6666666666666666 68.39379290111012 60.940000000000005 47.03333333333333
3491 31 6 0 66.19986187818954 58.56 52.54
3492 31 1 0 69.4907584125704 58.56 46.4
3493 31 2 0 70.58772392403068 58.56 47.03333333333333
3494 31 3 -0.6666666666666666 70.58772392403068 60.940000000000005 47.03333333333333
3495 31 4 0 71.68468943549098 58.56 47.666666666666664
3496 31 5 0.6666666666666666 71.68468943549098 56.18 47.666666666666664
3497 31 6 0 69.4907584125704 58.56 42.16
3498 31 1 0 72.78165494695126 58.56 48.3
3499 31 2 0 73.87862045841155 58.56 47.666666666666664
3500 31 3 -0.6666666666666666 73.87862045841155 56.18 47.666666666666664
3501 31 4 0 74.97558596987184 58.56 47.03333333333333
3502 31 5 0.6666666666666666 74.97558596987184 60.940000000000005 47.03333333333333
3503 31 6 0 72.78165494695126 58.56 52.54
3504 31 1 0 76.07255148133214 58.56 46.4
3505 31 2 0 77.16951699279242 58.56 47.03333333333333
3506 31 3 -0.6666666666666666 77.16951699279242 60.940000000000005 47.03333333333333
3507 31 4 0 78.26648250425272 58.56 47.666666666666664
3508 31 5 0.6666666666666666 78.26648250425272 56.18 47.666666666666664
3509 31 6 0 76.07255148133214 58.56 42.16
3510 31 1 0 79.363448015713 58.56 48.3
3511 31 2 0 80.46041352717329 58.56 47.666666666666664
3512 31 3 -0.6666666666666666 80.46041352717329 56.18 47.666666666666664
3513 31 4 0 81.55737903863358 58.56 47.03333333333333
3514 31 5 0.6666666666666666 81.55737903863358 60.940000000000005 47.03333333333333
3515 31 6 0 79.363448015713 58.56 52.54
3516 31 1 0 82.65434455009387 58.56 46.4
3517 31 2 0 83.75131006155415 58.56 47.03333333333333
3518 31 3 -0.6666666666666666 83.75131006155415 60.940000000000005 47.03333333333333
3519 31 4 0 84.84827557301445 58.56 47.666666666666664
3520 31 5 0.6666666666666666 84.84827557301445 56.18 47.666666666666664
3521 31 6 0 82.65434455009387 58.56 42.16
3522 31 1 0 85.94524108447473 58.56 48.3
3523 31 2 0 87.04220659593501 58.56 47.666666666666664
3524 31 3 -0.6666666666666666 87.04220659593501 56.18 47.666666666666664
3525 31 4 0 88.13917210739531 58.56 47.03333333333333
3526 31 5 0.6666666666666666 88.13917210739531 60.940000000000005 47.03333333333333
3527 31 6 0 85.94524108447473 58.56 52.54
3528 31 1 0 89.2361376188556 58.56 46.4
3529 31 2 0 90.33310313031588 58.56 47.03333333333333
3530 31 3 -0.6666666666666666 90.33310313031588 60.940000000000005 47.03333333333333
3531 31 4 0 91.43006864177617 58.56 47.666666666666664
3532 31 5 0.6666666666666666 91.43006864177617 56.18 47.666666666666664
3533 31 6 0 89.2361376188556 58.56 42.16
3534 31 1 0 92.52703415323647 58.56 48.3
3535 32 1 0 30.0 63.32 46.4
3536 32 2 0 31.09696551146029 63.32 47.03333333333333
3537 32 3 -0.6666666666666666 31.09696551146029 65.7 47.03333333333333
3538 32 4 0 32.19393102292058 63.32 47.666666666666664
3539 32 5 0.6666666666666666 32.19393102292058 60.94 47.666666666666664
3540 32 1 0 33.29089653438086 63.32 48.3
3541 32 2 0 34.38786204584115 63.32 47.666666666666664
3542 32 3 -0.6666666666666666 34.38786204584115 60.94 47.666666666666664
3543 32 4 0 35.48482755730144 63.32 47.03333333333333
3544 32 5 0.6666666666666666 35.48482755730144 65.7 47.03333333333333
3545 32 6 0 33.29089653438086 63.32 52.54
3546 32 1 0 36.58179306876173 63.32 46.4
3547 32 2 0 37.67875858022202 63.32 47.03333333333333
3548 32 3 -0.6666666666666666 37.67875858022202 65.7 47.03333333333333
3549 32 4 0 38.775724091682314 63.32 47.666666666666664
3550 32 5 0.6666666666666666 38.775724091682314 60.94 47.666666666666664
3551 32 6 0 36.58179306876173 63.32 42.16
3552 32 1 0 39.872689603142604 63.32 48.3
3553 32 2 0 40.969655114602894 63.32 47.666666666666664
3554 32 3 -0.6666666666666666 40.969655114602894 60.94 47.666666666666664
3555 32 4 0 42.066620626063184 63.32 47.03333333333333
3556 32 5 0.6666666666666666 42.066620626063184 65.7 47.03333333333333
3557 32 6 0 39.872689603142604 63.32 52.54
3558 32 1 0 43.16358613752347 63.32 46.4
3559 32 2 0 44.26055164898376 63.32 47.03333333333333
3560 32 3 -0.6666666666666666 44.26055164898376 65.7 47.03333333333333
3561 32 4 0 45.35751716044405 63.32 47.666666666666664
3562 32 5 0.6666666666666666 45.35751716044405 60.94 47.666666666666664
3563 32 6 0 43.16358613752347 63.32 42.16
3564 32 1 0 46.45448267190433 63.32 48.3
3565 32 2 0 47.55144818336462 63.32 47.666666666666664
3566 32 3 -0.6666666666666666 47.55144818336462 60.94 47.666666666666664
3567 32 4 0 48.64841369482491 63.32 47.03333333333333
3568 32 5 0.6666666666666666 48.64841369482491 65.7 47.03333333333333
3569 32 6 0 46.45448267190433 63.32 52.54
3570 32 1 0 49.7453792062852 63.32 46.4
3571 32 2 0 50.84234471774549 63.32 47.03333333333333
3572 32 3 -0.6666666666666666 50.84234471774549 65.7 47.03333333333333
3573 32 4 0 51.93931022920578 63.32 47.666666666666664
3574 32 5 0.6666666666666666 51.93931022920578 60.94 47.666666666666664
3575 32 6 0 49.7453792062852 63.32 42.16
3576 32 1 0 53.03627574066607 63.32 48.3
3577 32 2 0 54.13324125212636 63.32 47.666666666666664
3578 32 3 -0.6666666666666666 54.13324125212636 60.94 47.666666666666664
3579 32 4 0 55.23020676358665 63.32 47.03333333333333
3580 32 5 0.6666666666666666 55.23020676358665 65.7 47.03333333333333
3581 32 6 0 53.03627574066607 63.32 52.54
3582 32 1 0 56.327172275046934 63.32 46.4
3583 32 2 0 57.424137786507224 63.32 47.03333333333333
3584 32 3 -0.6666666666666666 57.424137786507224 65.7 47.03333333333333
3585 32 4 0 58.521103297967514 63.32 47.666666666666664
3586 32 5 0.6666666666666666 58.521103297967514 60.94 47.666666666666664
3587 32 6 0 56.327172275046934 63.32 42.16
3588 32 1 0 59.6180688094278 63.32 48.3
3589 32 2 0 60.71503432088809 63.32 47.666666666666664
3590 32 3 -0.6666666666666666 60.71503432088809 60.94 47.666666666666664
3591 32 4 0 61.81199983234838 63.32 47.03333333333333
3592 32 5 0.6666666666666666 61.81199983234838 65.7 47.03333333333333
3593 32 6 0 59.6180688094278 63.32 52.54
3594 32 1 0 62.90896534380867 63.32 46.4
3595 32 2 0 64.00593085526896 63.32 47.03333333333333
3596 32 3 -0.6666666666666666 64.00593085526896 65.7 47.03333333333333
3597 32 4 0 65.10289636672924 63.32 47.666666666666664
3598 32 5 0.6666666666666666 65.10289636672924 60.94 47.666666666666664
3599 32 6 0 62.90896534380867 63.32 42.16
3600 32 1 0 66.19986187818954 63.32 48.3
3601 32 2 0 67.29682738964982 63.32 47.666666666666664
3602 32 3 -0.6666666666666666 67.29682738964982 60.94 47.666666666666664
3603 32 4 0 68.39379290111012 63.32 47.03333333333333
3604 32 5 0.6666666666666666 68.39379290111012 65.7 47.03333333333333
3605 32 6 0 66.19986187818954 63.32 52.54
3606 32 1 0 69.4907584125704 63.32 46.4
3607 32 2 0 70.58772392403068 63.32 47.03333333333333
3608 32 3 -0.6666666666666666 70.58772392403068 65.7 47.03333333333333
3609 32 4 0 71.68468943549098 63.32 47.666666666666664
3610 32 5 0.6666666666666666 71.68468943549098 60.94 47.666666666666664
3611 32 6 0 69.4907584125704 63.32 42.16
3612 32 1 0 72.78165494695126 63.32 48.3
3613 32 2 0 73.87862045841155 63.32 47.666666666666664
3614 32 3 -0.6666666666666666 73.87862045841155 60.94 47.666666666666664
3615 32 4 0 74.97558596987184 63.32 47.03333333333333
3616 32 5 0.6666666666666666 74.97558596987184 65.7 47.03333333333333
3617 32 6 0 72.78165494695126 63.32 52.54
3618 32 1 0 76.07255148133214 63.32 46.4
3619 32 2 0 77.16951699279242 63.32 47.03333333333333
3620 32 3 -0.6666666666666666 77.16951699279242 65.7 47.03333333333333
3621 32 4 0 78.26648250425272 63.32 47.666666666666664
3622 32 5 0.6666666666666666 78.26648250425272 60.94 47.666666666666664
3623 32 6 0 76.07255148133214 63.32 42.16
3624 32 1 0 79.363448015713 63.32 48.3
3625 32 2 0 80.46041352717329 63.32 47.666666666666664
3626 32 3 -0.6666666666666666 80.46041352717329 60.94 47.666666666666664
3627 32 4 0 81.55737903863358 63.32 47.03333333333333
3628 32 5 0.6666666666666666 81.55737903863358 65.7 47.03333333333333
3629 32 6 0 79.363448015713 63.32 52.54
3630 32 1 0 82.65434455009387 63.32 46.4
3631 32 2 0 83.75131006155415 63.32 47.03333333333333
3632 32 3 -0.6666666666666666 83.75131006155415 65.7 47.03333333333333
3633 32 4 0 84.84827557301445 63.32 47.666666666666664
3634 32 5 0.6666666666666666 84.84827557301445 60.94 47.666666666666664
3635 32 6 0 82.65434455009387 63.32 42.16
3636 32 1 0 85.94524108447473 63.32 48.3
3637 32 2 0 87.04220659593501 63.32 47.666666666666664
3638 32 3 -0.6666666666666666 87.04220659593501 60.94 47.666666666666664
3639 32 4 0 88.13917210739531 63.32 47.03333333333333
3640 32 5 0.6666666666666666 88.13917210739531 65.7 47.03333333333333
3641 32 6 0 85.94524108447473 63.32 52.54
3642 32 1 0 89.2361376188556 63.32 46.4
3643 32 2 0 90.33310313031588 63.32 47.03333333333333
3644 32 3 -0.6666666666666666 90.33310313031588 65.7 47.03333333333333
3645 32 4 0 91.43006864177617 63.32 47.666666666666664
3646 32 5 0.6666666666666666 91.43006864177617 60.94 47.666666666666664
3647 32 6 0 89.2361376188556 63.32 42.16
3648 32 1 0 92.52703415323647 63.32 48.3
3649 33 1 0 30.0 68.08 46.4
3650 33 2 0 31.09696551146029 68.08 47.03333333333333
3651 33 3 -0.6666666666666666 31.09696551146029 70.46 47.03333333333333
3652 33 4 0 32.19393102292058 68.08 47.666666666666664
3653 33 5 0.6666666666666666 32.19393102292058 65.7 47.666666666666664
3654 33 1 0 33.29089653438086 68.08 48.3
3655 33 2 0 34.38786204584115 68.08 47.666666666666664
3656 33 3 -0.6666666666666666 34.38786204584115 65.7 47.666666666666664
3657 33 4 0 35.48482755730144 68.08 47.03333333333333
3658 33 5 0.6666666666666666 35.48482755730144 70.46 47.03333333333333
3659 33 6 0 33.29089653438086 68.08 52.54
3660 33 1 0 36.58179306876173 68.08 46.4
3661 33 2 0 37.67875858022202 68.08 47.03333333333333
3662 33 3 -0.6666666666666666 37.67875858022202 70.46 47.03333333333333
3663 33 4 0 38.775724091682314 68.08 47.666666666666664
3664 33 5 0.6666666666666666 38.775724091682314 65.7 47.666666666666664
3665 33 6 0 36.58179306876173 68.08 42.16
3666 33 1 0 39.872689603142604 68.08 48.3
3667 33 2 0 40.969655114602894 68.08 47.666666666666664
3668 33 3 -0.6666666666666666 40.969655114602894 65.7 47.666666666666664
3669 33 4 0 42.066620626063184 68.08 47.03333333333333
3670 33 5 0.6666666666666666 42.066620626063184 70.46 47.03333333333333
3671 33 6 0 39.872689603142604 68.08 52.54
3672 33 1 0 43.16358613752347 68.08 46.4
3673 33 2 0 44.26055164898376 68.08 47.03333333333333
3674 33 3 -0.6666666666666666 44.26055164898376 70.46 47.03333333333333
3675 33 4 0 45.35751716044405 68.08 47.666666666666664
3676 33 5 0.6666666666666666 45.35751716044405 65.7 47.666666666666664
3677 33 6 0 43.16358613752347 68.08 42.16
3678 33 1 0 46.45448267190433 68.08 48.3
3679 33 2 0 47.55144818336462 68.08 47.666666666666664
3680 33 3 -0.6666666666666666 47.55144818336462 65.7 47.666666666666664
3681 33 4 0 48.64841369482491 68.08 47.03333333333333
3682 33 5 0.6666666666666666 48.64841369482491 70.46 47.03333333333333
3683 33 6 0 46.45448267190433 68.08 52.54
3684 33 1 0 49.7453792062852 68.08 46.4
3685 33 2 0 50.84234471774549 68.08 47.03333333333333
3686 33 3 -0.6666666666666666 50.84234471774549 70.46 47.03333333333333
3687 33 4 0 51.93931022920578 68.08 47.666666666666664
3688 33 5 0.6666666666666666 51.93931022920578 65.7 47.666666666666664
3689 33 6 0 49.7453792062852 68.08 42.16
3690 33 1 0 53.03627574066607 68.08 48.3
3691 33 2 0 54.13324125212636 68.08 47.666666666666664
3692 33 3 -0.6666666666666666 54.13324125212636 65.7 47.666666666666664
3693 33 4 0 55.23020676358665 68.08 47.03333333333333
3694 33 5 0.6666666666666666 55.23020676358665 70.46 47.03333333333333
3695 33 6 0 53.03627574066607 68.08 52.54
3696 33 1 0 56.327172275046934 68.08 46.4
3697 33 2 0 57.424137786507224 68.08 47.03333333333333
3698 33 3 -0.6666666666666666 57.424137786507224 70.46 47.03333333333333
3699 33 4 0 58.521103297967514 68.08 47.666666666666664
3700 33 5 0.6666666666666666 58.521103297967514 65.7 47.666666666666664
3701 33 6 0 56.327172275046934 68.08 42.16
3702 33 1 0 59.6180688094278 68.08 48.3
3703 33 2 0 60.71503432088809 68.08 47.666666666666664
3704 33 3 -0.6666666666666666 60.71503432088809 65.7 47.666666666666664
3705 33 4 0 61.81199983234838 68.08 47.03333333333333
3706 33 5 0.6666666666666666 61.81199983234838 70.46 47.03333333333333
3707 33 6 0 59.6180688094278 68.08 52.54
3708 33 1 0 62.90896534380867 68.08 46.4
3709 33 2 0 64.00593085526896 68.08 47.03333333333333
3710 33 3 -0.6666666666666666 64.00593085526896 70.46 47.03333333333333
3711 33 4 0 65.10289636672924 68.08 47.666666666666664
3712 33 5 0.6666666666666666 65.10289636672924 65.7 47.666666666666664
3713 33 6 0 62.90896534380867 68.08 42.16
3714 33 1 0 66.19986187818954 68.08 48.3
3715 33 2 0 67.29682738964982 68.08 47.666666666666664
3716 33 3 -0.6666666666666666 67.29682738964982 65.7 47.666666666666664
3717 33 4 0 68.39379290111012 68.08 47.03333333333333
3718 33 5 0.6666666666666666 68.39379290111012 70.46 47.03333333333333
3719 33 6 0 66.19986187818954 68.08 52.54
3720 33 1 0 69.4907584125704 68.08 46.4
3721 33 2 0 70.58772392403068 68.08 47.03333333333333
3722 33 3 -0.6666666666666666 70.58772392403068 70.46 47.03333333333333
3723 33 4 0 71.68468943549098 68.08 47.666666666666664
3724 33 5 0.6666666666666666 71.68468943549098 65.7 47.666666666666664
3725 33 6 0 69.4907584125704 68.08 42.16
3726 33 1 0 72.78165494695126 68.08 48.3
3727 33 2 0 73.87862045841155 68.08 47.666666666666664
3728 33 3 -0.6666666666666666 73.87862045841155 65.7 47.666666666666664
3729 33 4 0 74.97558596987184 68.08 47.03333333333333
3730 33 5 0.6666666666666666 74.97558596987184 70.46 47.03333333333333
3731 33 6 0 72.78165494695126 68.08 52.54
3732 33 1 0 76.07255148133214 68.08 46.4
3733 33 2 0 77.16951699279242 68.08 47.03333333333333
3734 33 3 -0.6666666666666666 77.16951699279242 70.46 47.03333333333333
3735 33 4 0 78.26648250425272 68.08 47.666666666666664
3736 33 5 0.6666666666666666 78.26648250425272 65.7 47.666666666666664
3737 33 6 0 76.07255148133214 68.08 42.16
3738 33 1 0 79.363448015713 68.08 48.3
3739 33 2 0 80.46041352717329 68.08 47.666666666666664
3740 33 3 -0.6666666666666666 80.46041352717329 65.7 47.666666666666664
3741 33 4 0 81.55737903863358 68.08 47.03333333333333
3742 33 5 0.6666666666666666 81.55737903863358 70.46 47.03333333333333
3743 33 6 0 79.363448015713 68.08 52.54
3744 33 1 0 82.65434455009387 68.08 46.4
3745 33 2 0 83.75131006155415 68.08 47.03333333333333
3746 33 3 -0.6666666666666666 83.75131006155415 70.46 47.03333333333333
3747 33 4 0 84.84827557301445 68.08 47.666666666666664
3748 33 5 0.6666666666666666 84.84827557301445 65.7 47.666666666666664
3749 33 6 0 82.65434455009387 68.08 42.16
3750 33 1 0 85.94524108447473 68.08 48.3
3751 33 2 0 87.04220659593501 68.08 47.666666666666664
3752 33 3 -0.6666666666666666 87.04220659593501 65.7 47.666666666666664
3753 33 4 0 88.13917210739531 68.08 47.03333333333333
3754 33 5 0.6666666666666666 88.13917210739531 70.46 47.03333333333333
3755 33 6 0 85.94524108447473 68.08 52.54
3756 33 1 0 89.2361376188556 68.08 46.4
3757 33 2 0 90.33310313031588 68.08 47.03333333333333
3758 33 3 -0.6666666666666666 90.33310313031588 70.46 47.03333333333333
3759 33 4 0 91.43006864177617 68.08 47.666666666666664
3760 33 5 0.6666666666666666 91.43006864177617 65.7 47.666666666666664
3761 33 6 0 89.2361376188556 68.08 42.16
3762 33 1 0 92.52703415323647 68.08 48.3
3763 34 1 0 30.0 72.84 46.4
3764 34 2 0 31.09696551146029 72.84 47.03333333333333
3765 34 3 -0.6666666666666666 31.09696551146029 75.22 47.03333333333333
3766 34 4 0 32.19393102292058 72.84 47.666666666666664
3767 34 5 0.6666666666666666 32.19393102292058 70.46000000000001 47.666666666666664
3768 34 1 0 33.29089653438086 72.84 48.3
3769 34 2 0 34.38786204584115 72.84 47.666666666666664
3770 34 3 -0.6666666666666666 34.38786204584115 70.46000000000001 47.666666666666664
3771 34 4 0 35.48482755730144 72.84 47.03333333333333
3772 34 5 0.6666666666666666 35.48482755730144 75.22 47.03333333333333
3773 34 6 0 33.29089653438086 72.84 52.54
3774 34 1 0 36.58179306876173 72.84 46.4
3775 34 2 0 37.67875858022202 72.84 47.03333333333333
3776 34 3 -0.6666666666666666 37.67875858022202 75.22 47.03333333333333
3777 34 4 0 38.775724091682314 72.84 47.666666666666664
3778 34 5 0.6666666666666666 38.775724091682314 70.46000000000001 47.666666666666664
3779 34 6 0 36.58179306876173 72.84 42.16
3780 34 1 0 39.872689603142604 72.84 48.3
3781 34 2 0 40.969655114602894 72.84 47.666666666666664
3782 34 3 -0.6666666666666666 40.969655114602894 70.46000000000001 47.666666666666664
3783 34 4 0 42.066620626063184 72.84 47.03333333333333
3784 34 5 0.6666666666666666 42.066620626063184 75.22 47.03333333333333
3785 34 6 0 39.872689603142604 72.84 52.54
3786 34 1 0 43.16358613752347 72.84 46.4
3787 34 2 0 44.26055164898376 72.84 47.03333333333333
3788 34 3 -0.6666666666666666 44.26055164898376 75.22 47.03333333333333
3789 34 4 0 45.35751716044405 72.84 47.666666666666664
3790 34 5 0.6666666666666666 45.35751716044405 70.46000000000001 47.666666666666664
3791 34 6 0 43.16358613752347 72.84 42.16
3792 34 1 0 46.45448267190433 72.84 48.3
3793 34 2 0 47.55144818336462 72.84 47.666666666666664
3794 34 3 -0.6666666666666666 47.55144818336462 70.46000000000001 47.666666666666664
3795 34 4 0 48.64841369482491 72.84 47.03333333333333
3796 34 5 0.6666666666666666 48.64841369482491 75.22 47.03333333333333
3797 34 6 0 46.45448267190433 72.84 52.54
3798 34 1 0 49.7453792062852 72.84 46.4
3799 34 2 0 50.84234471774549 72.84 47.03333333333333
3800 34 3 -0.6666666666666666 50.84234471774549 75.22 47.03333333333333
3801 34 4 0 51.93931022920578 72.84 47.666666666666664
3802 34 5 0.6666666666666666 51.93931022920578 70.46000000000001 47.666666666666664
3803 34 6 0 49.7453792062852 72.84 42.16
3804 34 1 0 53.03627574066607 72.84 48.3
3805 34 2 0 54.13324125212636 72.84 47.666666666666664
3806 34 3 -0.6666666666666666 54.13324125212636 70.46000000000001 47.666666666666664
3807 34 4 0 55.23020676358665 72.84 47.03333333333333
3808 34 5 0.6666666666666666 55.23020676358665 75.22 47.03333333333333
3809 34 6 0 53.03627574066607 72.84 52.54
3810 34 1 0 56.327172275046934 72.84 46.4
3811 34 2 0 57.424137786507224 72.84 47.03333333333333
3812 34 3 -0.6666666666666666 57.424137786507224 75.22 47.03333333333333
3813 34 4 0 58.521103297967514 72.84 47.666666666666664
3814 34 5 0.6666666666666666 58.521103297967514 70.46000000000001 47.666666666666664
3815 34 6 0 56.327172275046934 72.84 42.16
3816 34 1 0 59.6180688094278 72.84 48.3
3817 34 2 0 60.71503432088809 72.84 47.666666666666664
3818 34 3 -0.6666666666666666 60.71503432088809 70.46000000000001 47.666666666666664
3819 34 4 0 61.81199983234838 72.84 47.03333333333333
3820 34 5 0.6666666666666666 61.81199983234838 75.22 47.03333333333333
3821 34 6 0 59.6180688094278 72.84 52.54
3822 34 1 0 62.90896534380867 72.84 46.4
3823 34 2 0 64.00593085526896 72.84 47.03333333333333
3824 34 3 -0.6666666666666666 64.00593085526896 75.22 47.03333333333333
3825 34 4 0 65.10289636672924 72.84 47.666666666666664
3826 34 5 0.6666666666666666 65.10289636672924 70.46000000000001 47.666666666666664
3827 34 6 0 62.90896534380867 72.84 42.16
3828 34 1 0 66.19986187818954 72.84 48.3
3829 34 2 0 67.29682738964982 72.84 47.666666666666664
3830 34 3 -0.6666666666666666 67.29682738964982 70.46000000000001 47.666666666666664
3831 34 4 0 68.39379290111012 72.84 47.03333333333333
3832 34 5 0.6666666666666666 68.39379290111012 75.22 47.03333333333333
3833 34 6 0 66.19986187818954 72.84 52.54
3834 34 1 0 69.4907584125704 72.84 46.4
3835 34 2 0 70.58772392403068 72.84 47.03333333333333
3836 34 3 -0.6666666666666666 70.58772392403068 75.22 47.03333333333333
3837 34 4 0 71.68468943549098 72.84 47.666666666666664
3838 34 5 0.6666666666666666 71.68468943549098 70.46000000000001 47.666666666666664
3839 34 6 0 69.4907584125704 72.84 42.16
3840 34 1 0 72.78165494695126 72.84 48.3
3841 34 2 0 73.87862045841155 72.84 47.666666666666664
3842 34 3 -0.6666666666666666 73.87862045841155 70.46000000000001 47.666666666666664
3843 34 4 0 74.97558596987184 72.84 47.03333333333333
3844 34 5 0.6666666666666666 74.97558596987184 75.22 47.03333333333333
3845 34 6 0 72.78165494695126 72.84 52.54
3846 34 1 0 76.07255148133214 72.84 46.4
3847 34 2 0 77.16951699279242 72.84 47.03333333333333
3848 34 3 -0.6666666666666666 77.16951699279242 75.22 47.03333333333333
3849 34 4 0 78.26648250425272 72.84 47.666666666666664
3850 34 5 0.6666666666666666 78.26648250425272 70.46000000000001 47.666666666666664
3851 34 6 0 76.07255148133214 72.84 42.16
3852 34 1 0 79.363448015713 72.84 48.3
3853 34 2 0 80.46041352717329 72.84 47.666666666666664
3854 34 3 -0.6666666666666666 80.46041352717329 70.46000000000001 47.666666666666664
3855 34 4 0 81.55737903863358 72.84 47.03333333333333
3856 34 5 0.6666666666666666 81.55737903863358 75.22 47.03333333333333
3857 34 6 0 79.363448015713 72.84 52.54
3858 34 1 0 82.65434455009387 72.84 46.4
3859 34 2 0 83.75131006155415 72.84 47.03333333333333
3860 34 3 -0.6666666666666666 83.75131006155415 75.22 47.03333333333333
3861 34 4 0 84.84827557301445 72.84 47.666666666666664
3862 34 5 0.6666666666666666 84.84827557301445 70.46000000000001 47.666666666666664
3863 34 6 0 82.65434455009387 72.84 42.16
3864 34 1 0 85.94524108447473 72.84 48.3
3865 34 2 0 87.04220659593501 72.84 47.666666666666664
3866 34 3 -0.6666666666666666 87.04220659593501 70.46000000000001 47.666666666666664
3867 34 4 0 88.13917210739531 72.84 47.03333333333333
3868 34 5 0.6666666666666666 88.13917210739531 75.22 47.03333333333333
3869 34 6 0 85.94524108447473 72.84 52.54
3870 34 1 0 89.2361376188556 72.84 46.4
3871 34 2 0 90.33310313031588 72.84 47.03333333333333
3872 34 3 -0.6666666666666666 90.33310313031588 75.22 47.03333333333333
3873 34 4 0 91.43006864177617 72.84 47.666666666666664
3874 34 5 0.6666666666666666 91.43006864177617 70.46000000000001 47.666666666666664
3875 34 6 0 89.2361376188556 72.84 42.16
3876 34 1 0 92.52703415323647 72.84 48.3
3877 35 1 0 30.0 77.6 46.4
3878 35 2 0 31.09696551146029 77.6 47.03333333333333
3879 35 3 -0.6666666666666666 31.09696551146029 79.97999999999999 47.03333333333333
3880 35 4 0 32.19393102292058 77.6 47.666666666666664
3881 35 5 0.6666666666666666 32.19393102292058 75.22 47.666666666666664
3882 35 1 0 33.29089653438086 77.6 48.3
3883 35 2 0 34.38786204584115 77.6 47.666666666666664
3884 35 3 -0.6666666666666666 34.38786204584115 75.22 47.666666666666664
3885 35 4 0 35.48482755730144 77.6 47.03333333333333
3886 35 5 0.6666666666666666 35.48482755730144 79.97999999999999 47.03333333333333
3887 35 6 0 33.29089653438086 77.6 52.54
3888 35 1 0 36.58179306876173 77.6 46.4
3889 35 2 0 37.67875858022202 77.6 47.03333333333333
3890 35 3 -0.6666666666666666 37.67875858022202 79.97999999999999 47.03333333333333
3891 35 4 0 38.775724091682314 77.6 47.666666666666664
3892 35 5 0.6666666666666666 38.775724091682314 75.22 47.666666666666664
3893 35 6 0 36.58179306876173 77.6 42.16
3894 35 1 0 39.872689603142604 77.6 48.3
3895 35 2 0 40.969655114602894 77.6 47.666666666666664
3896 35 3 -0.6666666666666666 40.969655114602894 75.22 47.666666666666664
3897 35 4 0 42.066620626063184 77.6 47.03333333333333
3898 35 5 0.6666666666666666 42.066620626063184 79.97999999999999 47.03333333333333
3899 35 6 0 39.872689603142604 77.6 52.54
3900 35 1 0 43.16358613752347 77.6 46.4
3901 35 2 0 44.26055164898376 77.6 47.03333333333333
3902 35 3 -0.6666666666666666 44.26055164898376 79.97999999999999 47.03333333333333
3903 35 4 0 45.35751716044405 77.6 47.666666666666664
3904 35 5 0.6666666666666666 45.35751716044405 75.22 47.666666666666664
3905 35 6 0 43.16358613752347 77.6 42.16
3906 35 1 0 46.45448267190433 77.6 48.3
3907 35 2 0 47.55144818336462 77.6 47.666666666666664
3908 35 3 -0.6666666666666666 47.55144818336462 75.22 47.666666666666664
3909 35 4 0 48.64841369482491 77.6 47.03333333333333
3910 35 5 0.6666666666666666 48.64841369482491 79.97999999999999 47.03333333333333
3911 35 6 0 46.45448267190433 77.6 52.54
3912 35 1 0 49.7453792062852 77.6 46.4
3913 35 2 0 50.84234471774549 77.6 47.03333333333333
3914 35 3 -0.6666666666666666 50.84234471774549 79.97999999999999 47.03333333333333
3915 35 4 0 51.93931022920578 77.6 47.666666666666664
3916 35 5 0.6666666666666666 51.93931022920578 75.22 47.666666666666664
3917 35 6 0 49.7453792062852 77.6 42.16
3918 35 1 0 53.03627574066607 77.6 48.3
3919 35 2 0 54.13324125212636 77.6 47.666666666666664
3920 35 3 -0.6666666666666666 54.13324125212636 75.22 47.666666666666664
3921 35 4 0 55.23020676358665 77.6 47.03333333333333
3922 35 5 0.6666666666666666 55.23020676358665 79.97999999999999 47.03333333333333
3923 35 6 0 53.03627574066607 77.6 52.54
3924 35 1 0 56.327172275046934 77.6 46.4
3925 35 2 0 57.424137786507224 77.6 47.03333333333333
3926 35 3 -0.6666666666666666 57.424137786507224 79.97999999999999 47.03333333333333
3927 35 4 0 58.521103297967514 77.6 47.666666666666664
3928 35 5 0.6666666666666666 58.521103297967514 75.22 47.666666666666664
3929 35 6 0 56.327172275046934 77.6 42.16
3930 35 1 0 59.6180688094278 77.6 48.3
3931 35 2 0 60.71503432088809 77.6 47.666666666666664
3932 35 3 -0.6666666666666666 60.71503432088809 75.22 47.666666666666664
3933 35 4 0 61.81199983234838 77.6 47.03333333333333
3934 35 5 0.6666666666666666 61.81199983234838 79.97999999999999 47.03333333333333
3935 35 6 0 59.6180688094278 77.6 52.54
3936 35 1 0 62.90896534380867 77.6 46.4
3937 35 2 0 64.00593085526896 77.6 47.03333333333333
3938 35 3 -0.6666666666666666 64.00593085526896 79.97999999999999 47.03333333333333
3939 35 4 0 65.10289636672924 77.6 47.666666666666664
3940 35 5 0.6666666666666666 65.10289636672924 75.22 47.666666666666664
3941 35 6 0 62.90896534380867 77.6 42.16
3942 35 1 0 66.19986187818954 77.6 48.3
3943 35 2 0 67.29682738964982 77.6 47.666666666666664
3944 35 3 -0.6666666666666666 67.29682738964982 75.22 47.666666666666664
3945 35 4 0 68.39379290111012 77.6 47.03333333333333
3946 35 5 0.6666666666666666 68.39379290111012 79.97999999999999 47.03333333333333
3947 35 6 0 66.19986187818954 77.6 52.54
3948 35 1 0 69.4907584125704 77.6 46.4
3949 35 2 0 70.58772392403068 77.6 47.03333333333333
3950 35 3 -0.6666666666666666 70.58772392403068 79.97999999999999 47.03333333333333
3951 35 4 0 71.68468943549098 77.6 47.666666666666664
3952 35 5 0.6666666666666666 71.68468943549098 75.22 47.666666666666664
3953 35 6 0 69.4907584125704 77.6 42.16
3954 35 1 0 72.78165494695126 77.6 48.3
3955 35 2 0 73.87862045841155 77.6 47.666666666666664
3956 35 3 -0.6666666666666666 73.87862045841155 75.22 47.666666666666664
3957 35 4 0 74.97558596987184 77.6 47.03333333333333
3958 35 5 0.6666666666666666 74.97558596987184 79.97999999999999 47.03333333333333
3959 35 6 0 72.78165494695126 77.6 52.54
3960 35 1 0 76.07255148133214 77.6 46.4
3961 35 2 0 77.16951699279242 77.6 47.03333333333333
3962 35 3 -0.6666666666666666 77.16951699279242 79.97999999999999 47.03333333333333
3963 35 4 0 78.26648250425272 77.6 47.666666666666664
3964 35 5 0.6666666666666666 78.26648250425272 75.22 47.666666666666664
3965 35 6 0 76.07255148133214 77.6 42.16
3966 35 1 0 79.363448015713 77.6 48.3
3967 35 2 0 80.46041352717329 77.6 47.666666666666664
3968 35 3 -0.6666666666666666 80.46041352717329 75.22 47.666666666666664
3969 35 4 0 81.55737903863358 77.6 47.03333333333333
3970 35 5 0.6666666666666666 81.55737903863358 79.97999999999999 47.03333333333333
3971 35 6 0 79.363448015713 77.6 52.54
3972 35 1 0 82.65434455009387 77.6 46.4
3973 35 2 0 83.75131006155415 77.6 47.03333333333333
3974 35 3 -0.6666666666666666 83.75131006155415 79.97999999999999 47.03333333333333
3975 35 4 0 84.84827557301445 77.6 47.666666666666664
3976 35 5 0.6666666666666666 84.84827557301445 75.22 47.666666666666664
3977 35 6 0 82.65434455009387 77.6 42.16
3978 35 1 0 85.94524108447473 77.6 48.3
3979 35 2 0 87.04220659593501 77.6 47.666666666666664
3980 35 3 -0.6666666666666666 87.04220659593501 75.22 47.666666666666664
3981 35 4 0 88.13917210739531 77.6 47.03333333333333
3982 35 5 0.6666666666666666 88.13917210739531 79.97999999999999 47.03333333333333
3983 35 6 0 85.94524108447473 77.6 52.54
3984 35 1 0 89.2361376188556 77.6 46.4
3985 35 2 0 90.33310313031588 77.6 47.03333333333333
3986 35 3 -0.6666666666666666 90.33310313031588 79.97999999999999 47.03333333333333
3987 35 4 0 91.43006864177617 77.6 47.666666666666664
3988 35 5 0.6666666666666666 91.43006864177617 75.22 47.666666666666664
3989 35 6 0 89.2361376188556 77.6 42.16
3990 35 1 0 92.52703415323647 77.6 48.3
3991 36 1 0 30.0 82.36 46.4
3992 36 2 0 31.09696551146029 82.36 47.03333333333333
3993 36 3 -0.6666666666666666 31.09696551146029 84.74 47.03333333333333
3994 36 4 0 32.19393102292058 82.36 47.666666666666664
3995 36 5 0.6666666666666666 32.19393102292058 79.98 47.666666666666664
3996 36 1 0 33.29089653438086 82.36 48.3
3997 36 2 0 34.38786204584115 82.36 47.666666666666664
3998 36 3 -0.6666666666666666 34.38786204584115 79.98 47.666666666666664
3999 36 4 0 35.48482755730144 82.36 47.03333333333333
4000 36 5 0.6666666666666666 35.48482755730144 84.74 47.03333333333333
4001 36 6 0 33.29089653438086 82.36 52.54
4002 36 1 0 36.58179306876173 82.36 46.4
4003 36 2 0 37.67875858022202 82.36 47.03333333333333
4004 36 3 -0.6666666666666666 37.67875858022202 84.74 47.03333333333333
4005 36 4 0 38.775724091682314 82.36 47.666666666666664
4006 36 5 0.6666666666666666 38.775724091682314 79.98 47.666666666666664
4007 36 6 0 36.58179306876173 82.36 42.16
4008 36 1 0 39.872689603142604 82.36 48.3
4009 36 2 0 40.969655114602894 82.36 47.666666666666664
4010 36 3 -0.6666666666666666 40.969655114602894 79.98 47.666666666666664
4011 36 4 0 42.066620626063184 82.36 47.03333333333333
4012 36 5 0.6666666666666666 42.066620626063184 84.74 47.03333333333333
4013 36 6 0 39.872689603142604 82.36 52.54
4014 36 1 0 43.16358613752347 82.36 46.4
4015 36 2 0 44.26055164898376 82.36 47.03333333333333
4016 36 3 -0.6666666666666666 44.26055164898376 84.74 47.03333333333333
4017 36 4 0 45.35751716044405 82.36 47.666666666666664
4018 36 5 0.6666666666666666 45.35751716044405 79.98 47.666666666666664
4019 36 6 0 43.16358613752347 82.36 42.16
4020 36 1 0 46.45448267190433 82.36 48.3
4021 36 2 0 47.55144818336462 82.36 47.666666666666664
4022 36 3 -0.6666666666666666 47.55144818336462 79.98 47.666666666666664
4023 36 4 0 48.64841369482491 82.36 47.03333333333333
4024 36 5 0.6666666666666666 48.64841369482491 84.74 47.03333333333333
4025 36 6 0 46.45448267190433 82.36 52.54
4026 36 1 0 49.7453792062852 82.36 46.4
4027 36 2 0 50.84234471774549 82.36 47.03333333333333
4028 36 3 -0.6666666666666666 50.84234471774549 84.74 47.03333333333333
4029 36 4 0 51.93931022920578 82.36 47.666666666666664
4030 36 5 0.6666666666666666 51.93931022920578 79.98 47.666666666666664
4031 36 6 0 49.7453792062852 82.36 42.16
4032 36 1 0 53.03627574066607 82.36 48.3
4033 36 2 0 54.13324125212636 82.36 47.666666666666664
4034 36 3 -0.6666666666666666 54.13324125212636 79.98 47.666666666666664
4035 36 4 0 55.23020676358665 82.36 47.03333333333333
4036 36 5 0.6666666666666666 55.23020676358665 84.74 47.03333333333333
4037 36 6 0 53.03627574066607 82.36 52.54
4038 36 1 0 56.327172275046934 82.36 46.4
4039 36 2 0 57.424137786507224 82.36 47.03333333333333
4040 36 3 -0.6666666666666666 57.424137786507224 84.74 47.03333333333333
4041 36 4 0 58.521103297967514 82.36 47.666666666666664
4042 36 5 0.6666666666666666 58.521103297967514 79.98 47.666666666666664
4043 36 6 0 56.327172275046934 82.36 42.16
4044 36 1 0 59.6180688094278 82.36 48.3
4045 36 2 0 60.71503432088809 82.36 47.666666666666664
4046 36 3 -0.6666666666666666 60.71503432088809 79.98 47.666666666666664
4047 36 4 0 61.81199983234838 82.36 47.03333333333333
4048 36 5 0.6666666666666666 61.81199983234838 84.74 47.03333333333333
4049 36 6 0 59.6180688094278 82.36 52.54
4050 36 1 0 62.90896534380867 82.36 46.4
4051 36 2 0 64.00593085526896 82.36 47.03333333333333
4052 36 3 -0.6666666666666666 64.00593085526896 84.74 47.03333333333333
4053 36 4 0 65.10289636672924 82.36 47.666666666666664
4054 36 5 0.6666666666666666 65.10289636672924 79.98 47.666666666666664
4055 36 6 0 62.90896534380867 82.36 42.16
4056 36 1 0 66.19986187818954 82.36 48.3
4057 36 2 0 67.29682738964982 82.36 47.666666666666664
4058 36 3 -0.6666666666666666 67.29682738964982 79.98 47.666666666666664
4059 36 4 0 68.39379290111012 82.36 47.03333333333333
4060 36 5 0.6666666666666666 68.39379290111012 84.74 47.03333333333333
4061 36 6 0 66.19986187818954 82.36 52.54
4062 36 1 0 69.4907584125704 82.36 46.4
4063 36 2 0 70.58772392403068 82.36 47.03333333333333
4064 36 3 -0.6666666666666666 70.58772392403068 84.74 47.03333333333333
4065 36 4 0 71.68468943549098 82.36 47.666666666666664
4066 36 5 0.6666666666666666 71.68468943549098 79.98 47.666666666666664
4067 36 6 0 69.4907584125704 82.36 42.16
4068 36 1 0 72.78165494695126 82.36 48.3
4069 36 2 0 73.87862045841155 82.36 47.666666666666664
4070 36 3 -0.6666666666666666 73.87862045841155 79.98 47.666666666666664
4071 36 4 0 74.97558596987184 82.36 47.03333333333333
4072 36 5 0.6666666666666666 74.97558596987184 84.74 47.03333333333333
4073 36 6 0 72.78165494695126 82.36 52.54
4074 36 1 0 76.07255148133214 82.36 46.4
4075 36 2 0 77.16951699279242 82.36 47.03333333333333
4076 36 3 -0.6666666666666666 77.16951699279242 84.74 47.03333333333333
4077 36 4 0 78.26648250425272 82.36 47.666666666666664
4078 36 5 0.6666666666666666 78.26648250425272 79.98 47.666666666666664
4079 36 6 0 76.07255148133214 82.36 42.16
4080 36 1 0 79.363448015713 82.36 48.3
4081 36 2 0 80.46041352717329 82.36 47.666666666666664
4082 36 3 -0.6666666666666666 80.46041352717329 79.98 47.666666666666664
4083 36 4 0 81.55737903863358 82.36 47.03333333333333
4084 36 5 0.6666666666666666 81.55737903863358 84.74 47.03333333333333
4085 36 6 0 79.363448015713 82.36 52.54
4086 36 1 0 82.65434455009387 82.36 46.4
4087 36 2 0 83.75131006155415 82.36 47.03333333333333
4088 36 3 -0.6666666666666666 83.75131006155415 84.74 47.03333333333333
4089 36 4 0 84.84827557301445 82.36 47.666666666666664
4090 36 5 0.6666666666666666 84.84827557301445 79.98 47.666666666666664
4091 36 6 0 82.65434455009387 82.36 42.16
4092 36 1 0 85.94524108447473 82.36 48.3
4093 36 2 0 87.04220659593501 82.36 47.666666666666664
4094 36 3 -0.6666666666666666 87.04220659593501 79.98 47.666666666666664
4095 36 4 0 88.13917210739531 82.36 47.03333333333333
4096 36 5 0.6666666666666666 88.13917210739531 84.74 47.03333333333333
4097 36 6 0 85.94524108447473 82.36 52.54
4098 36 1 0 89.2361376188556 82.36 46.4
4099 36 2 0 90.33310313031588 82.36 47.03333333333333
4100 36 3 -0.6666666666666666 90.33310313031588 84.74 47.03333333333333
4101 36 4 0 91.43006864177617 82.36 47.666666666666664
4102 36 5 0.6666666666666666 91.43006864177617 79.98 47.666666666666664
4103 36 6 0 89.2361376188556 82.36 42.16
4104 36 1 0 92.52703415323647 82.36 48.3
4105 37 1 0 30.0 30.0 54.599999999999994
4106 37 2 0 31.09696551146029 30.0 55.23333333333333
4107 37 3 -0.6666666666666666 31.09696551146029 32.38 55.23333333333333
4108 37 4 0 32.19393102292058 30.0 55.86666666666666
4109 37 5 0.6666666666666666 32.19393102292058 27.62 55.86666666666666
4110 37 1 0 33.29089653438086 30.0 56.49999999999999
4111 37 2 0 34.38786204584115 30.0 55.86666666666666
4112 37 3 -0.6666666666666666 34.38786204584115 27.62 55.86666666666666
4113 37 4 0 35.48482755730144 30.0 55.23333333333333
4114 37 5 0.6666666666666666 35.48482755730144 32.38 55.23333333333333
4115 37 6 0 33.29089653438086 30.0 60.739999999999995
4116 37 1 0 36.58179306876173 30.0 54.599999999999994
4117 37 2 0 37.67875858022202 30.0 55.23333333333333
4118 37 3 -0.6666666666666666 37.67875858022202 32.38 55.23333333333333
4119 37 4 0 38.775724091682314 30.0 55.86666666666666
4120 37 5 0.6666666666666666 38.775724091682314 27.62 55.86666666666666
4121 37 6 0 36.58179306876173 30.0 50.35999999999999
4122 37 1 0 39.872689603142604 30.0 56.49999999999999
4123 37 2 0 40.969655114602894 30.0 55.86666666666666
4124 37 3 -0.6666666666666666 40.969655114602894 27.62 55.86666666666666
4125 37 4 0 42.066620626063184 30.0 55.23333333333333
4126 37 5 0.6666666666666666 42.066620626063184 32.38 55.23333333333333
4127 37 6 0 39.872689603142604 30.0 60.739999999999995
4128 37 1 0 43.16358613752347 30.0 54.599999999999994
4129 37 2 0 44.26055164898376 30.0 55.23333333333333
4130 37 3 -0.6666666666666666 44.26055164898376 32.38 55.23333333333333
4131 37 4 0 45.35751716044405 30.0 55.86666666666666
4132 37 5 0.6666666666666666 45.35751716044405 27.62 55.86666666666666
4133 37 6 0 43.16358613752347 30.0 50.35999999999999
4134 37 1 0 46.45448267190433 30.0 56.49999999999999
4135 37 2 0 47.55144818336462 30.0 55.86666666666666
4136 37 3 -0.6666666666666666 47.55144818336462 27.62 55.86666666666666
4137 37 4 0 48.64841369482491 30.0 55.23333333333333
4138 37 5 0.6666666666666666 48.64841369482491 32.38 55.23333333333333
4139 37 6 0 46.45448267190433 30.0 60.739999999999995
4140 37 1 0 49.7453792062852 30.0 54.599999999999994
4141 37 2 0 50.84234471774549 30.0 55.23333333333333
4142 37 3 -0.6666666666666666 50.84234471774549 32.38 55.23333333333333
4143 37 4 0 51.93931022920578 30.0 55.86666666666666
4144 37 5 0.6666666666666666 51.93931022920578 27.62 55.86666666666666
4145 37 6 0 49.7453792062852 30.0 50.35999999999999
4146 37 1 0 53.03627574066607 30.0 56.49999999999999
4147 37 2 0 54.13324125212636 30.0 55.86666666666666
4148 37 3 -0.6666666666666666 54.13324125212636 27.62 55.86666666666666
4149 37 4 0 55.23020676358665 30.0 55.23333333333333
4150 37 5 0.6666666666666666 55.23020676358665 32.38 55.23333333333333
4151 37 6 0 53.03627574066607 30.0 60.739999999999995
4152 37 1 0 56.327172275046934 30.0 54.599999999999994
4153 37 2 0 57.424137786507224 30.0 55.23333333333333
4154 37 3 -0.6666666666666666 57.424137786507224 32.38 55.23333333333333
4155 37 4 0 58.521103297967514 30.0 55.86666666666666
4156 37 5 0.6666666666666666 58.521103297967514 27.62 55.86666666666666
4157 37 6 0 56.327172275046934 30.0 50.35999999999999
4158 37 1 0 59.6180688094278 30.0 56.49999999999999
4159 37 2 0 60.71503432088809 30.0 55.86666666666666
4160 37 3 -0.6666666666666666 60.71503432088809 27.62 55.86666666666666
4161 37 4 0 61.81199983234838 30.0 55.23333333333333
4162 37 5 0.6666666666666666 61.81199983234838 32.38 55.23333333333333
4163 37 6 0 59.6180688094278 30.0 60.739999999999995
4164 37 1 0 62.90896534380867 30.0 54.599999999999994
4165 37 2 0 64.00593085526896 30.0 55.23333333333333
4166 37 3 -0.6666666666666666 64.00593085526896 32.38 55.23333333333333
4167 37 4 0 65.10289636672924 30.0 55.86666666666666
4168 37 5 0.6666666666666666 65.10289636672924 27.62 55.86666666666666
4169 37 6 0 62.90896534380867 30.0 50.35999999999999
4170 37 1 0 66.19986187818954 30.0 56.49999999999999
4171 37 2 0 67.29682738964982 30.0 55.86666666666666
4172 37 3 -0.6666666666666666 67.29682738964982 27.62 55.86666666666666
4173 37 4 0 68.39379290111012 30.0 55.23333333333333
4174 37 5 0.6666666666666666 68.39379290111012 32.38 55.23333333333333
4175 37 6 0 66.19986187818954 30.0 60.739999999999995
4176 37 1 0 69.4907584125704 30.0 54.599999999999994
4177 37 2 0 70.58772392403068 30.0 55.23333333333333
4178 37 3 -0.6666666666666666 70.58772392403068 32.38 55.23333333333333
4179 37 4 0 71.68468943549098 30.0 55.86666666666666
4180 37 5 0.6666666666666666 71.68468943549098 27.62 55.86666666666666
4181 37 6 0 69.4907584125704 30.0 50.35999999999999
4182 37 1 0 72.78165494695126 30.0 56.49999999999999
4183 37 2 0 73.87862045841155 30.0 55.86666666666666
4184 37 3 -0.6666666666666666 73.87862045841155 27.62 55.86666666666666
4185 37 4 0 74.97558596987184 30.0 55.23333333333333
4186 37 5 0.6666666666666666 74.97558596987184 32.38 55.23333333333333
4187 37 6 0 72.78165494695126 30.0 60.739999999999995
4188 37 1 0 76.07255148133214 30.0 54.599999999999994
4189 37 2 0 77.16951699279242 30.0 55.23333333333333
4190 37 3 -0.6666666666666666 77.16951699279242 32.38 55.23333333333333
4191 37 4 0 78.26648250425272 30.0 55.86666666666666
4192 37 5 0.6666666666666666 78.26648250425272 27.62 55.86666666666666
4193 37 6 0 76.07255148133214 30.0 50.35999999999999
4194 37 1 0 79.363448015713 30.0 56.49999999999999
4195 37 2 0 80.46041352717329 30.0 55.86666666666666
4196 37 3 -0.6666666666666666 80.46041352717329 27.62 55.86666666666666
4197 37 4 0 81.55737903863358 30.0 55.23333333333333
4198 37 5 0.6666666666666666 81.55737903863358 32.38 55.23333333333333
4199 37 6 0 79.363448015713 30.0 60.739999999999995
4200 37 1 0 82.65434455009387 30.0 54.599999999999994
4201 37 2 0 83.75131006155415 30.0 55.23333333333333
4202 37 3 -0.6666666666666666 83.75131006155415 32.38 55.23333333333333
4203 37 4 0 84.84827557301445 30.0 55.86666666666666
4204 37 5 0.6666666666666666 84.84827557301445 27.62 55.86666666666666
4205 37 6 0 82.65434455009387 30.0 50.35999999999999
4206 37 1 0 85.94524108447473 30.0 56.49999999999999
4207 37 2 0 87.04220659593501 30.0 55.86666666666666
4208 37 3 -0.6666666666666666 87.04220659593501 27.62 55.86666666666666
4209 37 4 0 88.13917210739531 30.0 55.23333333333333
4210 37 5 0.6666666666666666 88.13917210739531 32.38 55.23333333333333
4211 37 6 0 85.94524108447473 30.0 60.739999999999995
4212 37 1 0 89.2361376188556 30.0 54.599999999999994
4213 37 2 0 90.33310313031588 30.0 55.23333333333333
4214 37 3 -0.6666666666666666 90.33310313031588 32.38 55.23333333333333
4215 37 4 0 91.43006864177617 30.0 55.86666666666666
4216 37 5 0.6666666666666666 91.43006864177617 27.62 55.86666666666666
4217 37 6 0 89.2361376188556 30.0 50.35999999999999
4218 37 1 0 92.52703415323647 30.0 56.49999999999999
4219 38 1 0 30.0 34.76 54.599999999999994
4220 38 2 0 31.09696551146029 34.76 55.23333333333333
4221 38 3 -0.6666666666666666 31.09696551146029 37.14 55.23333333333333
4222 38 4 0 32.19393102292058 34.76 55.86666666666666
4223 38 5 0.6666666666666666 32.19393102292058 32.379999999999995 55.86666666666666
4224 38 1 0 33.29089653438086 34.76 56.49999999999999
4225 38 2 0 34.38786204584115 34.76 55.86666666666666
4226 38 3 -0.6666666666666666 34.38786204584115 32.379999999999995 55.86666666666666
4227 38 4 0 35.48482755730144 34.76 55.23333333333333
4228 38 5 0.6666666666666666 35.48482755730144 37.14 55.23333333333333
4229 38 6 0 33.29089653438086 34.76 60.739999999999995
4230 38 1 0 36.58179306876173 34.76 54.599999999999994
4231 38 2 0 37.67875858022202 34.76 55.23333333333333
4232 38 3 -0.6666666666666666 37.67875858022202 37.14 55.23333333333333
4233 38 4 0 38.775724091682314 34.76 55.86666666666666
4234 38 5 0.6666666666666666 38.775724091682314 32.379999999999995 55.86666666666666
4235 38 6 0 36.58179306876173 34.76 50.35999999999999
4236 38 1 0 39.872689603142604 34.76 56.49999999999999
4237 38 2 0 40.969655114602894 34.76 55.86666666666666
4238 38 3 -0.6666666666666666 40.969655114602894 32.379999999999995 55.86666666666666
4239 38 4 0 42.066620626063184 34.76 55.23333333333333
4240 38 5 0.6666666666666666 42.066620626063184 37.14 55.23333333333333
4241 38 6 0 39.872689603142604 34.76 60.739999999999995
4242 38 1 0 43.16358613752347 34.76 54.599999999999994
4243 38 2 0 44.26055164898376 34.76 55.23333333333333
4244 38 3 -0.6666666666666666 44.26055164898376 37.14 55.23333333333333
4245 38 4 0 45.35751716044405 34.76 55.86666666666666
4246 38 5 0.6666666666666666 45.35751716044405 32.379999999999995 55.86666666666666
4247 38 6 0 43.16358613752347 34.76 50.35999999999999
4248 38 1 0 46.45448267190433 34.76 56.49999999999999
4249 38 2 0 47.55144818336462 34.76 55.86666666666666
4250 38 3 -0.6666666666666666 47.55144818336462 32.379999999999995 55.86666666666666
4251 38 4 0 48.64841369482491 34.76 55.23333333333333
4252 38 5 0.6666666666666666 48.64841369482491 37.14 55.23333333333333
4253 38 6 0 46.45448267190433 34.76 60.739999999999995
4254 38 1 0 49.7453792062852 34.76 54.599999999999994
4255 38 2 0 50.84234471774549 34.76 55.23333333333333
4256 38 3 -0.6666666666666666 50.84234471774549 37.14 55.23333333333333
4257 38 4 0 51.93931022920578 34.76 55.86666666666666
4258 38 5 0.6666666666666666 51.93931022920578 32.379999999999995 55.86666666666666
4259 38 6 0 49.7453792062852 34.76 50.35999999999999
4260 38 1 0 53.03627574066607 34.76 56.49999999999999
4261 38 2 0 54.13324125212636 34.76 55.86666666666666
4262 38 3 -0.6666666666666666 54.13324125212636 32.379999999999995 55.86666666666666
4263 38 4 0 55.23020676358665 34.76 55.23333333333333
4264 38 5 0.6666666666666666 55.23020676358665 37.14 55.23333333333333
4265 38 6 0 53.03627574066607 34.76 60.739999999999995
4266 38 1 0 56.327172275046934 34.76 54.599999999999994
4267 38 2 0 57.424137786507224 34.76 55.23333333333333
4268 38 3 -0.6666666666666666 57.424137786507224 37.14 55.23333333333333
4269 38 4 0 58.521103297967514 34.76 55.86666666666666
4270 38 5 0.6666666666666666 58.521103297967514 32.379999999999995 55.86666666666666
4271 38 6 0 56.327172275046934 34.76 50.35999999999999
4272 38 1 0 59.6180688094278 34.76 56.49999999999999
4273 38 2 0 60.71503432088809 34.76 55.86666666666666
4274 38 3 -0.6666666666666666 60.71503432088809 32.379999999999995 55.86666666666666
4275 38 4 0 61.81199983234838 34.76 55.23333333333333
4276 38 5 0.6666666666666666 61.81199983234838 37.14 55.23333333333333
4277 38 6 0 59.6180688094278 34.76 60.739999999999995
4278 38 1 0 62.90896534380867 34.76 54.599999999999994
4279 38 2 0 64.00593085526896 34.76 55.23333333333333
4280 38 3 -0.6666666666666666 64.00593085526896 37.14 55.23333333333333
4281 38 4 0 65.10289636672924 34.76 55.86666666666666
4282 38 5 0.6666666666666666 65.10289636672924 32.379999999999995 55.86666666666666
4283 38 6 0 62.90896534380867 34.76 50.35999999999999
4284 38 1 0 66.19986187818954 34.76 56.49999999999999
4285 38 2 0 67.29682738964982 34.76 55.86666666666666
4286 38 3 -0.6666666666666666 67.29682738964982 32.379999999999995 55.86666666666666
4287 38 4 0 68.39379290111012 34.76 55.23333333333333
4288 38 5 0.6666666666666666 68.39379290111012 37.14 55.23333333333333
4289 38 6 0 66.19986187818954 34.76 60.739999999999995
4290 38 1 0 69.4907584125704 34.76 54.599999999999994
4291 38 2 0 70.58772392403068 34.76 55.23333333333333
4292 38 3 -0.6666666666666666 70.58772392403068 37.14 55.23333333333333
4293 38 4 0 71.68468943549098 34.76 55.86666666666666
4294 38 5 0.6666666666666666 71.68468943549098 32.379999999999995 55.86666666666666
4295 38 6 0 69.4907584125704 34.76 50.35999999999999
4296 38 1 0 72.78165494695126 34.76 56.49999999999999
4297 38 2 0 73.87862045841155 34.76 55.86666666666666
4298 38 3 -0.6666666666666666 73.87862045841155 32.379999999999995 55.86666666666666
4299 38 4 0 74.97558596987184 34.76 55.23333333333333
4300 38 5 0.6666666666666666 74.97558596987184 37.14 55.23333333333333
4301 38 6 0 72.78165494695126 34.76 60.739999999999995
4302 38 1 0 76.07255148133214 34.76 54.599999999999994
4303 38 2 0 77.16951699279242 34.76 55.23333333333333
4304 38 3 -0.6666666666666666 77.16951699279242 37.14 55.23333333333333
4305 38 4 0 78.26648250425272 34.76 55.86666666666666
4306 38 5 0.6666666666666666 78.26648250425272 32.379999999999995 55.86666666666666
4307 38 6 0 76.07255148133214 34.76 50.35999999999999
4308 38 1 0 79.363448015713 34.76 56.49999999999999
4309 38 2 0 80.46041352717329 34.76 55.86666666666666
4310 38 3 -0.6666666666666666 80.46041352717329 32.379999999999995 55.86666666666666
4311 38 4 0 81.55737903863358 34.76 55.23333333333333
4312 38 5 0.6666666666666666 81.55737903863358 37.14 55.23333333333333
4313 38 6 0 79.363448015713 34.76 60.739999999999995
4314 38 1 0 82.65434455009387 34.76 54.599999999999994
4315 38 2 0 83.75131006155415 34.76 55.23333333333333
4316 38 3 -0.6666666666666666 83.75131006155415 37.14 55.23333333333333
4317 38 4 0 84.84827557301445 34.76 55.86666666666666
4318 38 5 0.6666666666666666 84.84827557301445 32.379999999999995 55.86666666666666
4319 38 6 0 82.65434455009387 34.76 50.35999999999999
4320 38 1 0 85.94524108447473 34.76 56.49999999999999
4321 38 2 0 87.04220659593501 34.76 55.86666666666666
4322 38 3 -0.6666666666666666 87.04220659593501 32.379999999999995 55.86666666666666
4323 38 4 0 88.13917210739531 34.76 55.23333333333333
4324 38 5 0.6666666666666666 88.13917210739531 37.14 55.23333333333333
4325 38 6 0 85.94524108447473 34.76 60.739999999999995
4326 38 1 0 89.2361376188556 34.76 54.599999999999994
4327 38 2 0 90.33310313031588 34.76 55.23333333333333
4328 38 3 -0.6666666666666666 90.33310313031588 37.14 55.23333333333333
4329 38 4 0 91.43006864177617 34.76 55.86666666666666
4330 38 5 0.6666666666666666 91.43006864177617 32.379999999999995 55.86666666666666
4331 38 6 0 89.2361376188556 34.76 50.35999999999999
4332 38 1 0 92.52703415323647 34.76 56.49999999999999
4333 39 1 0 30.0 39.519999999999996 54.599999999999994
4334 39 2 0 31.09696551146029 39.519999999999996 55.23333333333333
4335 39 3 -0.6666666666666666 31.09696551146029 41.9 55.23333333333333
4336 39 4 0 32.19393102292058 39.519999999999996 55.86666666666666
4337 39 5 0.6666666666666666 32.19393102292058 37.13999999999999 55.86666666666666
4338 39 1 0 33.29089653438086 39.519999999999996 56.49999999999999
4339 39 2 0 34.38786204584115 39.519999999999996 55.86666666666666
4340 39 3 -0.6666666666666666 34.38786204584115 37.13999999999999 55.86666666666666
4341 39 4 0 35.48482755730144 39.519999999999996 55.23333333333333
4342 39 5 0.6666666666666666 35.48482755730144 41.9 55.23333333333333
4343 39 6 0 33.29089653438086 39.519999999999996 60.739999999999995
4344 39 1 0 36.58179306876173 39.519999999999996 54.599999999999994
4345 39 2 0 37.67875858022202 39.519999999999996 55.23333333333333
4346 39 3 -0.6666666666666666 37.67875858022202 41.9 55.23333333333333
4347 39 4 0 38.775724091682314 39.519999999999996 55.86666666666666
4348 39 5 0.6666666666666666 38.775724091682314 37.13999999999999 55.86666666666666
4349 39 6 0 36.58179306876173 39.519999999999996 50.35999999999999
4350 39 1 0 39.872689603142604 39.519999999999996 56.49999999999999
4351 39 2 0 40.969655114602894 39.519999999999996 55.86666666666666
4352 39 3 -0.6666666666666666 40.969655114602894 37.13999999999999 55.86666666666666
4353 39 4 0 42.066620626063184 39.519999999999996 55.23333333333333
4354 39 5 0.6666666666666666 42.066620626063184 41.9 55.23333333333333
4355 39 6 0 39.872689603142604 39.519999999999996 60.739999999999995
4356 39 1 0 43.16358613752347 39.519999999999996 54.599999999999994
4357 39 2 0 44.26055164898376 39.519999999999996 55.23333333333333
4358 39 3 -0.6666666666666666 44.26055164898376 41.9 55.23333333333333
4359 39 4 0 45.35751716044405 39.519999999999996 55.86666666666666
4360 39 5 0.6666666666666666 45.35751716044405 37.13999999999999 55.86666666666666
4361 39 6 0 43.16358613752347 39.519999999999996 50.35999999999999
4362 39 1 0 46.45448267190433 39.519999999999996 56.49999999999999
4363 39 2 0 47.55144818336462 39.519999999999996 55.86666666666666
4364 39 3 -0.6666666666666666 47.55144818336462 37.13999999999999 55.86666666666666
4365 39 4 0 48.64841369482491 39.519999999999996 55.23333333333333
4366 39 5 0.6666666666666666 48.64841369482491 41.9 55.23333333333333
4367 39 6 0 46.45448267190433 39.519999999999996 60.739999999999995
4368 39 1 0 49.7453792062852 39.519999999999996 54.599999999999994
4369 39 2 0 50.84234471774549 39.519999999999996 55.23333333333333
4370 39 3 -0.6666666666666666 50.84234471774549 41.9 55.23333333333333
4371 39 4 0 51.93931022920578 39.519999999999996 55.86666666666666
4372 39 5 0.6666666666666666 51.93931022920578 37.13999999999999 55.86666666666666
4373 39 6 0 49.7453792062852 39.519999999999996 50.35999999999999
4374 39 1 0 53.03627574066607 39.519999999999996 56.49999999999999
4375 39 2 0 54.13324125212636 39.519999999999996 55.86666666666666
4376 39 3 -0.6666666666666666 54.13324125212636 37.13999999999999 55.86666666666666
4377 39 4 0 55.23020676358665 39.519999999999996 55.23333333333333
4378 39 5 0.6666666666666666 55.23020676358665 41.9 55.23333333333333
4379 39 6 0 53.03627574066607 39.519999999999996 60.739999999999995
4380 39 1 0 56.327172275046934 39.519999999999996 54.599999999999994
4381 39 2 0 57.424137786507224 39.519999999999996 55.23333333333333
4382 39 3 -0.6666666666666666 57.424137786507224 41.9 55.23333333333333
4383 39 4 0 58.521103297967514 39.519999999999996 55.86666666666666
4384 39 5 0.6666666666666666 58.521103297967514 37.13999999999999 55.86666666666666
4385 39 6 0 56.327172275046934 39.519999999999996 50.35999999999999
4386 39 1 0 59.6180688094278 39.519999999999996 56.49999999999999
4387 39 2 0 60.71503432088809 39.519999999999996 55.86666666666666
4388 39 3 -0.6666666666666666 60.71503432088809 37.13999999999999 55.86666666666666
4389 39 4 0 61.81199983234838 39.519999999999996 55.23333333333333
4390 39 5 0.6666666666666666 61.81199983234838 41.9 55.23333333333333
4391 39 6 0 59.6180688094278 39.519999999999996 60.739999999999995
4392 39 1 0 62.90896534380867 39.519999999999996 54.599999999999994
4393 39 2 0 64.00593085526896 39.519999999999996 55.23333333333333
4394 39 3 -0.6666666666666666 64.00593085526896 41.9 55.23333333333333
4395 39 4 0 65.10289636672924 39.519999999999996 55.86666666666666
4396 39 5 0.6666666666666666 65.10289636672924 37.13999999999999 55.86666666666666
4397 39 6 0 62.90896534380867 39.519999999999996 50.35999999999999
4398 39 1 0 66.19986187818954 39.519999999999996 56.49999999999999
4399 39 2 0 67.29682738964982 39.519999999999996 55.86666666666666
4400 39 3 -0.6666666666666666 67.29682738964982 37.13999999999999 55.86666666666666
4401 39 4 0 68.39379290111012 39.519999999999996 55.23333333333333
4402 39 5 0.6666666666666666 68.39379290111012 41.9 55.23333333333333
4403 39 6 0 66.19986187818954 39.519999999999996 60.739999999999995
4404 39 1 0 69.4907584125704 39.519999999999996 54.599999999999994
4405 39 2 0 70.58772392403068 39.519999999999996 55.23333333333333
4406 39 3 -0.6666666666666666 70.58772392403068 41.9 55.23333333333333
4407 39 4 0 71.68468943549098 39.519999999999996 55.86666666666666
4408 39 5 0.6666666666666666 71.68468943549098 37.13999999999999 55.86666666666666
4409 39 6 0 69.4907584125704 39.519999999999996 50.35999999999999
4410 39 1 0 72.78165494695126 39.519999999999996 56.49999999999999
4411 39 2 0 73.87862045841155 39.519999999999996 55.86666666666666
4412 39 3 -0.6666666666666666 73.87862045841155 37.13999999999999 55.86666666666666
4413 39 4 0 74.97558596987184 39.519999999999996 55.23333333333333
4414 39 5 0.6666666666666666 74.97558596987184 41.9 55.23333333333333
4415 39 6 0 72.78165494695126 39.519999999999996 60.739999999999995
4416 39 1 0 76.07255148133214 39.519999999999996 54.599999999999994
4417 39 2 0 77.16951699279242 39.519999999999996 55.23333333333333
4418 39 3 -0.6666666666666666 77.16951699279242 41.9 55.23333333333333
4419 39 4 0 78.26648250425272 39.519999999999996 55.86666666666666
4420 39 5 0.6666666666666666 78.26648250425272 37.13999999999999 55.86666666666666
4421 39 6 0 76.07255148133214 39.519999999999996 50.35999999999999
4422 39 1 0 79.363448015713 39.519999999999996 56.49999999999999
4423 39 2 0 80.46041352717329 39.519999999999996 55.86666666666666
4424 39 3 -0.6666666666666666 80.46041352717329 37.13999999999999 55.86666666666666
4425 39 4 0 81.55737903863358 39.519999999999996 55.23333333333333
4426 39 5 0.6666666666666666 81.55737903863358 41.9 55.23333333333333
4427 39 6 0 79.363448015713 39.519999999999996 60.739999999999995
4428 39 1 0 82.65434455009387 39.519999999999996 54.599999999999994
4429 39 2 0 83.75131006155415 39.519999999999996 55.23333333333333
4430 39 3 -0.6666666666666666 83.75131006155415 41.9 55.23333333333333
4431 39 4 0 84.84827557301445 39.519999999999996 55.86666666666666
4432 39 5 0.6666666666666666 84.84827557301445 37.13999999999999 55.86666666666666
4433 39 6 0 82.65434455009387 39.519999999999996 50.35999999999999
4434 39 1 0 85.94524108447473 39.519999999999996 56.49999999999999
4435 39 2 0 87.04220659593501 39.519999999999996 55.86666666666666
4436 39 3 -0.6666666666666666 87.04220659593501 37.13999999999999 55.86666666666666
4437 39 4 0 88.13917210739531 39.519999999999996 55.23333333333333
4438 39 5 0.6666666666666666 88.13917210739531 41.9 55.23333333333333
4439 39 6 0 85.94524108447473 39.519999999999996 60.739999999999995
4440 39 1 0 89.2361376188556 39.519999999999996 54.599999999999994
4441 39 2 0 90.33310313031588 39.519999999999996 55.23333333333333
4442 39 3 -0.6666666666666666 90.33310313031588 41.9 55.23333333333333
4443 39 4 0 91.43006864177617 39.519999999999996 55.86666666666666
4444 39 5 0.6666666666666666 91.43006864177617 37.13999999999999 55.86666666666666
4445 39 6 0 89.2361376188556 39.519999999999996 50.35999999999999
4446 39 1 0 92.52703415323647 39.519999999999996 56.49999999999999
4447 40 1 0 30.0 44.28 54.599999999999994
4448 40 2 0 31.09696551146029 44.28 55.23333333333333
4449 40 3 -0.6666666666666666 31.09696551146029 46.660000000000004 55.23333333333333
4450 40 4 0 32.19393102292058 44.28 55.86666666666666
4451 40 5 0.6666666666666666 32.19393102292058 41.9 55.86666666666666
4452 40 1 0 33.29089653438086 44.28 56.49999999999999
4453 40 2 0 34.38786204584115 44.28 55.86666666666666
4454 40 3 -0.6666666666666666 34.38786204584115 41.9 55.86666666666666
4455 40 4 0 35.48482755730144 44.28 55.23333333333333
4456 40 5 0.6666666666666666 35.48482755730144 46.660000000000004 55.23333333333333
4457 40 6 0 33.29089653438086 44.28 60.739999999999995
4458 40 1 0 36.58179306876173 44.28 54.599999999999994
4459 40 2 0 37.67875858022202 44.28 55.23333333333333
4460 40 3 -0.6666666666666666 37.67875858022202 46.660000000000004 55.23333333333333
4461 40 4 0 38.775724091682314 44.28 55.86666666666666
4462 40 5 0.6666666666666666 38.775724091682314 41.9 55.86666666666666
4463 40 6 0 36.58179306876173 44.28 50.35999999999999
4464 40 1 0 39.872689603142604 44.28 56.49999999999999
4465 40 2 0 40.969655114602894 44.28 55.86666666666666
4466 40 3 -0.6666666666666666 40.969655114602894 41.9 55.86666666666666
4467 40 4 0 42.066620626063184 44.28 55.23333333333333
4468 40 5 0.6666666666666666 42.066620626063184 46.660000000000004 55.23333333333333
4469 40 6 0 39.872689603142604 44.28 60.739999999999995
4470 40 1 0 43.16358613752347 44.28 54.599999999999994
4471 40 2 0 44.26055164898376 44.28 55.23333333333333
4472 40 3 -0.6666666666666666 44.26055164898376 46.660000000000004 55.23333333333333
4473 40 4 0 45.35751716044405 44.28 55.86666666666666
4474 40 5 0.6666666666666666 45.35751716044405 41.9 55.86666666666666
4475 40 6 0 43.16358613752347 44.28 50.35999999999999
4476 40 1 0 46.45448267190433 44.28 56.49999999999999
4477 40 2 0 47.55144818336462 44.28 55.86666666666666
4478 40 3 -0.6666666666666666 47.55144818336462 41.9 55.86666666666666
4479 40 4 0 48.64841369482491 44.28 55.23333333333333
4480 40 5 0.6666666666666666 48.64841369482491 46.660000000000004 55.23333333333333
4481 40 6 0 46.45448267190433 44.28 60.739999999999995
4482 40 1 0 49.7453792062852 44.28 54.599999999999994
4483 40 2 0 50.84234471774549 44.28 55.23333333333333
4484 40 3 -0.6666666666666666 50.84234471774549 46.660000000000004 55.23333333333333
4485 40 4 0 51.93931022920578 44.28 55.86666666666666
4486 40 5 0.6666666666666666 51.93931022920578 41.9 55.86666666666666
4487 40 6 0 49.7453792062852 44.28 50.35999999999999
4488 40 1 0 53.03627574066607 44.28 56.49999999999999
4489 40 2 0 54.13324125212636 44.28 55.86666666666666
4490 40 3 -0.6666666666666666 54.13324125212636 41.9 55.86666666666666
4491 40 4 0 55.23020676358665 44.28 55.23333333333333
4492 40 5 0.6666666666666666 55.23020676358665 46.660000000000004 55.23333333333333
4493 40 6 0 53.03627574066607 44.28 60.739999999999995
4494 40 1 0 56.327172275046934 44.28 54.599999999999994
4495 40 2 0 57.424137786507224 44.28 55.23333333333333
4496 40 3 -0.6666666666666666 57.424137786507224 46.660000000000004 55.23333333333333
4497 40 4 0 58.521103297967514 44.28 55.86666666666666
4498 40 5 0.6666666666666666 58.521103297967514 41.9 55.86666666666666
4499 40 6 0 56.327172275046934 44.28 50.35999999999999
4500 40 1 0 59.6180688094278 44.28 56.49999999999999
4501 40 2 0 60.71503432088809 44.28 55.86666666666666
4502 40 3 -0.6666666666666666 60.71503432088809 41.9 55.86666666666666
4503 40 4 0 61.81199983234838 44.28 55.23333333333333
4504 40 5 0.6666666666666666 61.81199983234838 46.660000000000004 55.23333333333333
4505 40 6 0 59.6180688094278 44.28 60.739999999999995
4506 40 1 0 62.90896534380867 44.28 54.599999999999994
4507 40 2 0 64.00593085526896 44.28 55.23333333333333
4508 40 3 -0.6666666666666666 64.00593085526896 46.660000000000004 55.23333333333333
4509 40 4 0 65.10289636672924 44.28 55.86666666666666
4510 40 5 0.6666666666666666 65.10289636672924 41.9 55.86666666666666
4511 40 6 0 62.90896534380867 44.28 50.35999999999999
4512 40 1 0 66.19986187818954 44.28 56.49999999999999
4513 40 2 0 67.29682738964982 44.28 55.86666666666666
4514 40 3 -0.6666666666666666 67.29682738964982 41.9 55.86666666666666
4515 40 4 0 68.39379290111012 44.28 55.23333333333333
4516 40 5 0.6666666666666666 68.39379290111012 46.660000000000004 55.23333333333333
4517 40 6 0 66.19986187818954 44.28 60.739999999999995
4518 40 1 0 69.4907584125704 44.28 54.599999999999994
4519 40 2 0 70.58772392403068 44.28 55.23333333333333
4520 40 3 -0.6666666666666666 70.58772392403068 46.660000000000004 55.23333333333333
4521 40 4 0 71.68468943549098 44.28 55.86666666666666
4522 40 5 0.6666666666666666 71.68468943549098 41.9 55.86666666666666
4523 40 6 0 69.4907584125704 44.28 50.35999999999999
4524 40 1 0 72.78165494695126 44.28 56.49999999999999
4525 40 2 0 73.87862045841155 44.28 55.86666666666666
4526 40 3 -0.6666666666666666 73.87862045841155 41.9 55.86666666666666
4527 40 4 0 74.97558596987184 44.28 55.23333333333333
4528 40 5 0.6666666666666666 74.97558596987184 46.660000000000004 55.23333333333333
4529 40 6 0 72.78165494695126 44.28 60.739999999999995
4530 40 1 0 76.07255148133214 44.28 54.599999999999994
4531 40 2 0 77.16951699279242 44.28 55.23333333333333
4532 40 3 -0.6666666666666666 77.16951699279242 46.660000000000004 55.23333333333333
4533 40 4 0 78.26648250425272 44.28 55.86666666666666
4534 40 5 0.6666666666666666 78.26648250425272 41.9 55.86666666666666
4535 40 6 0 76.07255148133214 44.28 50.35999999999999
4536 40 1 0 79.363448015713 44.28 56.49999999999999
4537 40 2 0 80.46041352717329 44.28 55.86666666666666
4538 40 3 -0.6666666666666666 80.46041352717329 41.9 55.86666666666666
4539 40 4 0 81.55737903863358 44.28 55.23333333333333
4540 40 5 0.6666666666666666 81.55737903863358 46.660000000000004 55.23333333333333
4541 40 6 0 79.363448015713 44.28 60.739999999999995
4542 40 1 0 82.65434455009387 44.28 54.599999999999994
4543 40 2 0 83.75131006155415 44.28 55.23333333333333
4544 40 3 -0.6666666666666666 83.75131006155415 46.660000000000004 55.23333333333333
4545 40 4 0 84.84827557301445 44.28 55.86666666666666
4546 40 5 0.6666666666666666 84.84827557301445 41.9 55.86666666666666
4547 40 6 0 82.65434455009387 44.28 50.35999999999999
4548 40 1 0 85.94524108447473 44.28 56.49999999999999
4549 40 2 0 87.04220659593501 44.28 55.86666666666666
4550 40 3 -0.6666666666666666 87.04220659593501 41.9 55.86666666666666
4551 40 4 0 88.13917210739531 44.28 55.23333333333333
4552 40 5 0.6666666666666666 88.13917210739531 46.660000000000004 55.23333333333333
4553 40 6 0 85.94524108447473 44.28 60.739999999999995
4554 40 1 0 89.2361376188556 44.28 54.599999999999994
4555 40 2 0 90.33310313031588 44.28 55.23333333333333
4556 40 3 -0.6666666666666666 90.33310313031588 46.660000000000004 55.23333333333333
4557 40 4 0 91.43006864177617 44.28 55.86666666666666
4558 40 5 0.6666666666666666 91.43006864177617 41.9 55.86666666666666
4559 40 6 0 89.2361376188556 44.28 50.35999999999999
4560 40 1 0 92.52703415323647 44.28 56.49999999999999
4561 41 1 0 30.0 49.04 54.599999999999994
4562 41 2 0 31.09696551146029 49.04 55.23333333333333
4563 41 3 -0.6666666666666666 31.09696551146029 51.42 55.23333333333333
4564 41 4 0 32.19393102292058 49.04 55.86666666666666
4565 41 5 0.6666666666666666 32.19393102292058 46.66 55.86666666666666
4566 41 1 0 33.29089653438086 49.04 56.49999999999999
4567 41 2 0 34.38786204584115 49.04 55.86666666666666
4568 41 3 -0.6666666666666666 34.38786204584115 46.66 55.86666666666666
4569 41 4 0 35.48482755730144 49.04 55.23333333333333
4570 41 5 0.6666666666666666 35.48482755730144 51.42 55.23333333333333
4571 41 6 0 33.29089653438086 49.04 60.739999999999995
4572 41 1 0 36.58179306876173 49.04 54.599999999999994
4573 41 2 0 37.67875858022202 49.04 55.23333333333333
4574 41 3 -0.6666666666666666 37.67875858022202 51.42 55.23333333333333
4575 41 4 0 38.775724091682314 49.04 55.86666666666666
4576 41 5 0.6666666666666666 38.775724091682314 46.66 55.86666666666666
4577 41 6 0 36.58179306876173 49.04 50.35999999999999
4578 41 1 0 39.872689603142604 49.04 56.49999999999999
4579 41 2 0 40.969655114602894 49.04 55.86666666666666
4580 41 3 -0.6666666666666666 40.969655114602894 46.66 55.86666666666666
4581 41 4 0 42.066620626063184 49.04 55.23333333333333
4582 41 5 0.6666666666666666 42.066620626063184 51.42 55.23333333333333
4583 41 6 0 39.872689603142604 49.04 60.739999999999995
4584 41 1 0 43.16358613752347 49.04 54.599999999999994
4585 41 2 0 44.26055164898376 49.04 55.23333333333333
4586 41 3 -0.6666666666666666 44.26055164898376 51.42 55.23333333333333
4587 41 4 0 45.35751716044405 49.04 55.86666666666666
4588 41 5 0.6666666666666666 45.35751716044405 46.66 55.86666666666666
4589 41 6 0 43.16358613752347 49.04 50.35999999999999
4590 41 1 0 46.45448267190433 49.04 56.49999999999999
4591 41 2 0 47.55144818336462 49.04 55.86666666666666
4592 41 3 -0.6666666666666666 47.55144818336462 46.66 55.86666666666666
4593 41 4 0 48.64841369482491 49.04 55.23333333333333
4594 41 5 0.6666666666666666 48.64841369482491 51.42 55.23333333333333
4595 41 6 0 46.45448267190433 49.04 60.739999999999995
4596 41 1 0 49.7453792062852 49.04 54.599999999999994
4597 41 2 0 50.84234471774549 49.04 55.23333333333333
4598 41 3 -0.6666666666666666 50.84234471774549 51.42 55.23333333333333
4599 41 4 0 51.93931022920578 49.04 55.86666666666666
4600 41 5 0.6666666666666666 51.93931022920578 46.66 55.86666666666666
4601 41 6 0 49.7453792062852 49.04 50.35999999999999
4602 41 1 0 53.03627574066607 49.04 56.49999999999999
4603 41 2 0 54.13324125212636 49.04 55.86666666666666
4604 41 3 -0.6666666666666666 54.13324125212636 46.66 55.86666666666666
4605 41 4 0 55.23020676358665 49.04 55.23333333333333
4606 41 5 0.6666666666666666 55.23020676358665 51.42 55.23333333333333
4607 41 6 0 53.03627574066607 49.04 60.739999999999995
4608 41 1 0 56.327172275046934 49.04 54.599999999999994
4609 41 2 0 57.424137786507224 49.04 55.23333333333333
4610 41 3 -0.6666666666666666 57.424137786507224 51.42 55.23333333333333
4611 41 4 0 58.521103297967514 49.04 55.86666666666666
4612 41 5 0.6666666666666666 58.521103297967514 46.66 55.86666666666666
4613 41 6 0 56.327172275046934 49.04 50.35999999999999
4614 41 1 0 59.6180688094278 49.04 56.49999999999999
4615 41 2 0 60.71503432088809 49.04 55.86666666666666
4616 41 3 -0.6666666666666666 60.71503432088809 46.66 55.86666666666666
4617 41 4 0 61.81199983234838 49.04 55.23333333333333
4618 41 5 0.6666666666666666 61.81199983234838 51.42 55.23333333333333
4619 41 6 0 59.6180688094278 49.04 60.739999999999995
4620 41 1 0 62.90896534380867 49.04 54.599999999999994
4621 41 2 0 64.00593085526896 49.04 55.23333333333333
4622 41 3 -0.6666666666666666 64.00593085526896 51.42 55.23333333333333
4623 41 4 0 65.10289636672924 49.04 55.86666666666666
4624 41 5 0.6666666666666666 65.10289636672924 46.66 55.86666666666666
4625 41 6 0 62.90896534380867 49.04 50.35999999999999
4626 41 1 0 66.19986187818954 49.04 56.49999999999999
4627 41 2 0 67.29682738964982 49.04 55.86666666666666
4628 41 3 -0.6666666666666666 67.29682738964982 46.66 55.86666666666666
4629 41 4 0 68.39379290111012 49.04 55.23333333333333
4630 41 5 0.6666666666666666 68.39379290111012 51.42 55.23333333333333
4631 41 6 0 66.19986187818954 49.04 60.739999999999995
4632 41 1 0 69.4907584125704 49.04 54.599999999999994
4633 41 2 0 70.58772392403068 49.04 55.23333333333333
4634 41 3 -0.6666666666666666 70.58772392403068 51.42 55.23333333333333
4635 41 4 0 71.68468943549098 49.04 55.86666666666666
4636 41 5 0.6666666666666666 71.68468943549098 46.66 55.86666666666666
4637 41 6 0 69.4907584125704 49.04 50.35999999999999
4638 41 1 0 72.78165494695126 49.04 56.49999999999999
4639 41 2 0 73.87862045841155 49.04 55.86666666666666
4640 41 3 -0.6666666666666666 73.87862045841155 46.66 55.86666666666666
4641 41 4 0 74.97558596987184 49.04 55.23333333333333
4642 41 5 0.6666666666666666 74.97558596987184 51.42 55.23333333333333
4643 41 6 0 72.78165494695126 49.04 60.739999999999995
4644 41 1 0 76.07255148133214 49.04 54.599999999999994
4645 41 2 0 77.16951699279242 49.04 55.23333333333333
4646 41 3 -0.6666666666666666 77.16951699279242 51.42 55.23333333333333
4647 41 4 0 78.26648250425272 49.04 55.86666666666666
4648 41 5 0.6666666666666666 78.26648250425272 46.66 55.86666666666666
4649 41 6 0 76.07255148133214 49.04 50.35999999999999
4650 41 1 0 79.363448015713 49.04 56.49999999999999
4651 41 2 0 80.46041352717329 49.04 55.86666666666666
4652 41 3 -0.6666666666666666 80.46041352717329 46.66 55.86666666666666
4653 41 4 0 81.55737903863358 49.04 55.23333333333333
4654 41 5 0.6666666666666666 81.55737903863358 51.42 55.23333333333333
4655 41 6 0 79.363448015713 49.04 60.739999999999995
4656 41 1 0 82.65434455009387 49.04 54.599999999999994
4657 41 2 0 83.75131006155415 49.04 55.23333333333333
4658 41 3 -0.6666666666666666 83.75131006155415 51.42 55.23333333333333
4659 41 4 0 84.84827557301445 49.04 55.86666666666666
4660 41 5 0.6666666666666666 84.84827557301445 46.66 55.86666666666666
4661 41 6 0 82.65434455009387 49.04 50.35999999999999
4662 41 1 0 85.94524108447473 49.04 56.49999999999999
4663 41 2 0 87.04220659593501 49.04 55.86666666666666
4664 41 3 -0.6666666666666666 87.04220659593501 46.66 55.86666666666666
4665 41 4 0 88.13917210739531 49.04 55.23333333333333
4666 41 5 0.6666666666666666 88.13917210739531 51.42 55.23333333333333
4667 41 6 0 85.94524108447473 49.04 60.739999999999995
4668 41 1 0 89.2361376188556 49.04 54.599999999999994
4669 41 2 0 90.33310313031588 49.04 55.23333333333333
4670 41 3 -0.6666666666666666 90.33310313031588 51.42 55.23333333333333
4671 41 4 0 91.43006864177617 49.04 55.86666666666666
4672 41 5 0.6666666666666666 91.43006864177617 46.66 55.86666666666666
4673 41 6 0 89.2361376188556 49.04 50.35999999999999
4674 41 1 0 92.52703415323647 49.04 56.49999999999999
4675 42 1 0 30.0 53.8 54.599999999999994
4676 42 2 0 31.09696551146029 53.8 55.23333333333333
4677 42 3 -0.6666666666666666 31.09696551146029 56.18 55.23333333333333
4678 42 4 0 32.19393102292058 53.8 55.86666666666666
4679 42 5 0.6666666666666666 32.19393102292058 51.419999999999995 55.86666666666666
4680 42 1 0 33.29089653438086 53.8 56.49999999999999
4681 42 2 0 34.38786204584115 53.8 55.86666666666666
4682 42 3 -0.6666666666666666 34.38786204584115 51.419999999999995 55.86666666666666
4683 42 4 0 35.48482755730144 53.8 55.23333333333333
4684 42 5 0.6666666666666666 35.48482755730144 56.18 55.23333333333333
4685 42 6 0 33.29089653438086 53.8 60.739999999999995
4686 42 1 0 36.58179306876173 53.8 54.599999999999994
4687 42 2 0 37.67875858022202 53.8 55.23333333333333
4688 42 3 -0.6666666666666666 37.67875858022202 56.18 55.23333333333333
4689 42 4 0 38.775724091682314 53.8 55.86666666666666
4690 42 5 0.6666666666666666 38.775724091682314 51.419999999999995 55.86666666666666
4691 42 6 0 36.58179306876173 53.8 50.35999999999999
4692 42 1 0 39.872689603142604 53.8 56.49999999999999
4693 42 2 0 40.969655114602894 53.8 55.86666666666666
4694 42 3 -0.6666666666666666 40.969655114602894 51.419999999999995 55.86666666666666
4695 42 4 0 42.066620626063184 53.8 55.23333333333333
4696 42 5 0.6666666666666666 42.066620626063184 56.18 55.23333333333333
4697 42 6 0 39.872689603142604 53.8 60.739999999999995
4698 42 1 0 43.16358613752347 53.8 54.599999999999994
4699 42 2 0 44.26055164898376 53.8 55.23333333333333
4700 42 3 -0.6666666666666666 44.26055164898376 56.18 55.23333333333333
4701 42 4 0 45.35751716044405 53.8 55.86666666666666
4702 42 5 0.6666666666666666 45.35751716044405 51.419999999999995 55.86666666666666
4703 42 6 0 43.16358613752347 53.8 50.35999999999999
4704 42 1 0 46.45448267190433 53.8 56.49999999999999
4705 42 2 0 47.55144818336462 53.8 55.86666666666666
4706 42 3 -0.6666666666666666 47.55144818336462 51.419999999999995 55.86666666666666
4707 42 4 0 48.64841369482491 53.8 55.23333333333333
4708 42 5 0.6666666666666666 48.64841369482491 56.18 55.23333333333333
4709 42 6 0 46.45448267190433 53.8 60.739999999999995
4710 42 1 0 49.7453792062852 53.8 54.599999999999994
4711 42 2 0 50.84234471774549 53.8 55.23333333333333
4712 42 3 -0.6666666666666666 50.84234471774549 56.18 55.23333333333333
4713 42 4 0 51.93931022920578 53.8 55.86666666666666
4714 42 5 0.6666666666666666 51.93931022920578 51.419999999999995 55.86666666666666
4715 42 6 0 49.7453792062852 53.8 50.35999999999999
4716 42 1 0 53.03627574066607 53.8 56.49999999999999
4717 42 2 0 54.13324125212636 53.8 55.86666666666666
4718 42 3 -0.6666666666666666 54.13324125212636 51.419999999999995 55.86666666666666
4719 42 4 0 55.23020676358665 53.8 55.23333333333333
4720 42 5 0.6666666666666666 55.23020676358665 56.18 55.23333333333333
4721 42 6 0 53.03627574066607 53.8 60.739999999999995
4722 42 1 0 56.327172275046934 53.8 54.599999999999994
4723 42 2 0 57.424137786507224 53.8 55.23333333333333
4724 42 3 -0.6666666666666666 57.424137786507224 56.18 55.23333333333333
4725 42 4 0 58.521103297967514 53.8 55.86666666666666
4726 42 5 0.6666666666666666 58.521103297967514 51.419999999999995 55.86666666666666
4727 42 6 0 56.327172275046934 53.8 50.35999999999999
4728 42 1 0 59.6180688094278 53.8 56.49999999999999
4729 42 2 0 60.71503432088809 53.8 55.86666666666666
4730 42 3 -0.6666666666666666 60.71503432088809 51.419999999999995 55.86666666666666
4731 42 4 0 61.81199983234838 53.8 55.23333333333333
4732 42 5 0.6666666666666666 61.81199983234838 56.18 55.23333333333333
4733 42 6 0 59.6180688094278 53.8 60.739999999999995
4734 42 1 0 62.90896534380867 53.8 54.599999999999994
4735 42 2 0 64.00593085526896 53.8 55.23333333333333
4736 42 3 -0.6666666666666666 64.00593085526896 56.18 55.23333333333333
4737 42 4 0 65.10289636672924 53.8 55.86666666666666
4738 42 5 0.6666666666666666 65.10289636672924 51.419999999999995 55.86666666666666
4739 42 6 0 62.90896534380867 53.8 50.35999999999999
4740 42 1 0 66.19986187818954 53.8 56.49999999999999
4741 42 2 0 67.29682738964982 53.8 55.86666666666666
4742 42 3 -0.6666666666666666 67.29682738964982 51.419999999999995 55.86666666666666
4743 42 4 0 68.39379290111012 53.8 55.23333333333333
4744 42 5 0.6666666666666666 68.39379290111012 56.18 55.23333333333333
4745 42 6 0 66.19986187818954 53.8 60.739999999999995
4746 42 1 0 69.4907584125704 53.8 54.599999999999994
4747 42 2 0 70.58772392403068 53.8 55.23333333333333
4748 42 3 -0.6666666666666666 70.58772392403068 56.18 55.23333333333333
4749 42 4 0 71.68468943549098 53.8 55.86666666666666
4750 42 5 0.6666666666666666 71.68468943549098 51.419999999999995 55.86666666666666
4751 42 6 0 69.4907584125704 53.8 50.35999999999999
4752 42 1 0 72.78165494695126 53.8 56.49999999999999
4753 42 2 0 73.87862045841155 53.8 55.86666666666666
4754 42 3 -0.6666666666666666 73.87862045841155 51.419999999999995 55.86666666666666
4755 42 4 0 74.97558596987184 53.8 55.23333333333333
4756 42 5 0.6666666666666666 74.97558596987184 56.18 55.23333333333333
4757 42 6 0 72.78165494695126 53.8 60.739999999999995
4758 42 1 0 76.07255148133214 53.8 54.599999999999994
4759 42 2 0 77.16951699279242 53.8 55.23333333333333
4760 42 3 -0.6666666666666666 77.16951699279242 56.18 55.23333333333333
4761 42 4 0 78.26648250425272 53.8 55.86666666666666
4762 42 5 0.6666666666666666 78.26648250425272 51.419999999999995 55.86666666666666
4763 42 6 0 76.07255148133214 53.8 50.35999999999999
4764 42 1 0 79.363448015713 53.8 56.49999999999999
4765 42 2 0 80.46041352717329 53.8 55.86666666666666
4766 42 3 -0.6666666666666666 80.46041352717329 51.419999999999995 55.86666666666666
4767 42 4 0 81.55737903863358 53.8 55.23333333333333
4768 42 5 0.6666666666666666 81.55737903863358 56.18 55.23333333333333
4769 42 6 0 79.363448015713 53.8 60.739999999999995
4770 42 1 0 82.65434455009387 53.8 54.599999999999994
4771 42 2 0 83.75131006155415 53.8 55.23333333333333
4772 42 3 -0.6666666666666666 83.75131006155415 56.18 55.23333333333333
4773 42 4 0 84.84827557301445 53.8 55.86666666666666
4774 42 5 0.6666666666666666 84.84827557301445 51.419999999999995 55.86666666666666
4775 42 6 0 82.65434455009387 53.8 50.35999999999999
4776 42 1 0 85.94524108447473 53.8 56.49999999999999
4777 42 2 0 87.04220659593501 53.8 55.86666666666666
4778 42 3 -0.6666666666666666 87.04220659593501 51.419999999999995 55.86666666666666
4779 42 4 0 88.13917210739531 53.8 55.23333333333333
4780 42 5 0.6666666666666666 88.13917210739531 56.18 55.23333333333333
4781 42 6 0 85.94524108447473 53.8 60.739999999999995
4782 42 1 0 89.2361376188556 53.8 54.599999999999994
4783 42 2 0 90.33310313031588 53.8 55.23333333333333
4784 42 3 -0.6666666666666666 90.33310313031588 56.18 55.23333333333333
4785 42 4 0 91.43006864177617 53.8 55.86666666666666
4786 42 5 0.6666666666666666 91.43006864177617 51.419999999999995 55.86666666666666
4787 42 6 0 89.2361376188556 53.8 50.35999999999999
4788 42 1 0 92.52703415323647 53.8 56.49999999999999
4789 43 1 0 30.0 58.56 54.599999999999994
4790 43 2 0 31.09696551146029 58.56 55.23333333333333
4791 43 3 -0.6666666666666666 31.09696551146029 60.940000000000005 55.23333333333333
4792 43 4 0 32.19393102292058 58.56 55.86666666666666
4793 43 5 0.6666666666666666 32.19393102292058 56.18 55.86666666666666
4794 43 1 0 33.29089653438086 58.56 56.49999999999999
4795 43 2 0 34.38786204584115 58.56 55.86666666666666
4796 43 3 -0.6666666666666666 34.38786204584115 56.18 55.86666666666666
4797 43 4 0 35.48482755730144 58.56 55.23333333333333
4798 43 5 0.6666666666666666 35.48482755730144 60.940000000000005 55.23333333333333
4799 43 6 0 33.29089653438086 58.56 60.739999999999995
4800 43 1 0 36.58179306876173 58.56 54.599999999999994
4801 43 2 0 37.67875858022202 58.56 55.23333333333333
4802 43 3 -0.6666666666666666 37.67875858022202 60.940000000000005 55.23333333333333
4803 43 4 0 38.775724091682314 58.56 55.86666666666666
4804 43 5 0.6666666666666666 38.775724091682314 56.18 55.86666666666666
4805 43 6 0 36.58179306876173 58.56 50.35999999999999
4806 43 1 0 39.872689603142604 58.56 56.49999999999999
4807 43 2 0 40.969655114602894 58.56 55.86666666666666
4808 43 3 -0.6666666666666666 40.969655114602894 56.18 55.86666666666666
4809 43 4 0 42.066620626063184 58.56 55.23333333333333
4810 43 5 0.6666666666666666 42.066620626063184 60.940000000000005 55.23333333333333
4811 43 6 0 39.872689603142604 58.56 60.739999999999995
4812 43 1 0 43.16358613752347 58.56 54.599999999999994
4813 43 2 0 44.26055164898376 58.56 55.23333333333333
4814 43 3 -0.6666666666666666 44.26055164898376 60.940000000000005 55.23333333333333
4815 43 4 0 45.35751716044405 58.56 55.86666666666666
4816 43 5 0.6666666666666666 45.35751716044405 56.18 55.86666666666666
4817 43 6 0 43.16358613752347 58.56 50.35999999999999
4818 43 1 0 46.45448267190433 58.56 56.49999999999999
4819 43 2 0 47.55144818336462 58.56 55.86666666666666
4820 43 3 -0.6666666666666666 47.55144818336462 56.18 55.86666666666666
4821 43 4 0 48.64841369482491 58.56 55.23333333333333
4822 43 5 0.6666666666666666 48.64841369482491 60.940000000000005 55.23333333333333
4823 43 6 0 46.45448267190433 58.56 60.739999999999995
4824 43 1 0 49.7453792062852 58.56 54.599999999999994
4825 43 2 0 50.84234471774549 58.56 55.23333333333333
4826 43 3 -0.6666666666666666 50.84234471774549 60.940000000000005 55.23333333333333
4827 43 4 0 51.93931022920578 58.56 55.86666666666666
4828 43 5 0.6666666666666666 51.93931022920578 56.18 55.86666666666666
4829 43 6 0 49.7453792062852 58.56 50.35999999999999
4830 43 1 0 53.03627574066607 58.56 56.49999999999999
4831 43 2 0 54.13324125212636 58.56 55.86666666666666
4832 43 3 -0.6666666666666666 54.13324125212636 56.18 55.86666666666666
4833 43 4 0 55.23020676358665 58.56 55.23333333333333
4834 43 5 0.6666666666666666 55.23020676358665 60.940000000000005 55.23333333333333
4835 43 6 0 53.03627574066607 58.56 60.739999999999995
4836 43 1 0 56.327172275046934 58.56 54.599999999999994
4837 43 2 0 57.424137786507224 58.56 55.23333333333333
4838 43 3 -0.6666666666666666 57.424137786507224 60.940000000000005 55.23333333333333
4839 43 4 0 58.521103297967514 58.56 55.86666666666666
4840 43 5 0.6666666666666666 58.521103297967514 56.18 55.86666666666666
4841 43 6 0 56.327172275046934 58.56 50.35999999999999
4842 43 1 0 59.6180688094278 58.56 56.49999999999999
4843 43 2 0 60.71503432088809 58.56 55.86666666666666
4844 43 3 -0.6666666666666666 60.71503432088809 56.18 55.86666666666666
4845 43 4 0 61.81199983234838 58.56 55.23333333333333
4846 43 5 0.6666666666666666 61.81199983234838 60.940000000000005 55.23333333333333
4847 43 6 0 59.6180688094278 58.56 60.739999999999995
4848 43 1 0 62.90896534380867 58.56 54.599999999999994
4849 43 2 0 64.00593085526896 58.56 55.23333333333333
4850 43 3 -0.6666666666666666 64.00593085526896 60.940000000000005 55.23333333333333
4851 43 4 0 65.10289636672924 58.56 55.86666666666666
4852 43 5 0.6666666666666666 65.10289636672924 56.18 55.86666666666666
4853 43 6 0 62.90896534380867 58.56 50.35999999999999
4854 43 1 0 66.19986187818954 58.56 56.49999999999999
4855 43 2 0 67.29682738964982 58.56 55.86666666666666
4856 43 3 -0.6666666666666666 67.29682738964982 56.18 55.86666666666666
4857 43 4 0 68.39379290111012 58.56 55.23333333333333
4858 43 5 0.6666666666666666 68.39379290111012 60.940000000000005 55.23333333333333
4859 43 6 0 66.19986187818954 58.56 60.739999999999995
4860 43 1 0 69.4907584125704 58.56 54.599999999999994
4861 43 2 0 70.58772392403068 58.56 55.23333333333333
4862 43 3 -0.6666666666666666 70.58772392403068 60.940000000000005 55.23333333333333
4863 43 4 0 71.68468943549098 58.56 55.86666666666666
4864 43 5 0.6666666666666666 71.68468943549098 56.18 55.86666666666666
4865 43 6 0 69.4907584125704 58.56 50.35999999999999
4866 43 1 0 72.78165494695126 58.56 56.49999999999999
4867 43 2 0 73.87862045841155 58.56 55.86666666666666
4868 43 3 -0.6666666666666666 73.87862045841155 56.18 55.86666666666666
4869 43 4 0 74.97558596987184 58.56 55.23333333333333
4870 43 5 0.6666666666666666 74.97558596987184 60.940000000000005 55.23333333333333
4871 43 6 0 72.78165494695126 58.56 60.739999999999995
4872 43 1 0 76.07255148133214 58.56 54.599999999999994
4873 43 2 0 77.16951699279242 58.56 55.23333333333333
4874 43 3 -0.6666666666666666 77.16951699279242 60.940000000000005 55.23333333333333
4875 43 4 0 78.26648250425272 58.56 55.86666666666666
4876 43 5 0.6666666666666666 78.26648250425272 56.18 55.86666666666666
4877 43 6 0 76.07255148133214 58.56 50.35999999999999
4878 43 1 0 79.363448015713 58.56 56.49999999999999
4879 43 2 0 80.46041352717329 58.56 55.86666666666666
4880 43 3 -0.6666666666666666 80.46041352717329 56.18 55.86666666666666
4881 43 4 0 81.55737903863358 58.56 55.23333333333333
4882 43 5 0.6666666666666666 81.55737903863358 60.940000000000005 55.23333333333333
4883 43 6 0 79.363448015713 58.56 60.739999999999995
4884 43 1 0 82.65434455009387 58.56 54.599999999999994
4885 43 2 0 83.75131006155415 58.56 55.23333333333333
4886 43 3 -0.6666666666666666 83.75131006155415 60.940000000000005 55.23333333333333
4887 43 4 0 84.84827557301445 58.56 55.86666666666666
4888 43 5 0.6666666666666666 84.84827557301445 56.18 55.86666666666666
4889 43 6 0 82.65434455009387 58.56 50.35999999999999
4890 43 1 0 85.94524108447473 58.56 56.49999999999999
4891 43 2 0 87.04220659593501 58.56 55.86666666666666
4892 43 3 -0.6666666666666666 87.04220659593501 56.18 55.86666666666666
4893 43 4 0 88.13917210739531 58.56 55.23333333333333
4894 43 5 0.6666666666666666 88.13917210739531 60.940000000000005 55.23333333333333
4895 43 6 0 85.94524108447473 58.56 60.739999999999995
4896 43 1 0 89.2361376188556 58.56 54.599999999999994
4897 43 2 0 90.33310313031588 58.56 55.23333333333333
4898 43 3 -0.6666666666666666 90.33310313031588 60.940000000000005 55.23333333333333
4899 43 4 0 91.43006864177617 58.56 55.86666666666666
4900 43 5 0.6666666666666666 91.43006864177617 56.18 55.86666666666666
4901 43 6 0 89.2361376188556 58.56 50.35999999999999
4902 43 1 0 92.52703415323647 58.56 56.49999999999999
4903 44 1 0 30.0 63.32 54.599999999999994
4904 44 2 0 31.09696551146029 63.32 55.23333333333333
4905 44 3 -0.6666666666666666 31.09696551146029 65.7 55.23333333333333
4906 44 4 0 32.19393102292058 63.32 55.86666666666666
4907 44 5 0.6666666666666666 32.19393102292058 60.94 55.86666666666666
4908 44 1 0 33.29089653438086 63.32 56.49999999999999
4909 44 2 0 34.38786204584115 63.32 55.86666666666666
4910 44 3 -0.6666666666666666 34.38786204584115 60.94 55.86666666666666
4911 44 4 0 35.48482755730144 63.32 55.23333333333333
4912 44 5 0.6666666666666666 35.48482755730144 65.7 55.23333333333333
4913 44 6 0 33.29089653438086 63.32 60.739999999999995
4914 44 1 0 36.58179306876173 63.32 54.599999999999994
4915 44 2 0 37.67875858022202 63.32 55.23333333333333
4916 44 3 -0.6666666666666666 37.67875858022202 65.7 55.23333333333333
4917 44 4 0 38.775724091682314 63.32 55.86666666666666
4918 44 5 0.6666666666666666 38.775724091682314 60.94 55.86666666666666
4919 44 6 0 36.58179306876173 63.32 50.35999999999999
4920 44 1 0 39.872689603142604 63.32 56.49999999999999
4921 44 2 0 40.969655114602894 63.32 55.86666666666666
4922 44 3 -0.6666666666666666 40.969655114602894 60.94 55.86666666666666
4923 44 4 0 42.066620626063184 63.32 55.23333333333333
4924 44 5 0.6666666666666666 42.066620626063184 65.7 55.23333333333333
4925 44 6 0 39.872689603142604 63.32 60.739999999999995
4926 44 1 0 43.16358613752347 63.32 54.599999999999994
4927 44 2 0 44.26055164898376 63.32 55.23333333333333
4928 44 3 -0.6666666666666666 44.26055164898376 65.7 55.23333333333333
4929 44 4 0 45.35751716044405 63.32 55.86666666666666
4930 44 5 0.6666666666666666 45.35751716044405 60.94 55.86666666666666
4931 44 6 0 43.16358613752347 63.32 50.35999999999999
4932 44 1 0 46.45448267190433 63.32 56.49999999999999
4933 44 2 0 47.55144818336462 63.32 55.86666666666666
4934 44 3 -0.6666666666666666 47.55144818336462 60.94 55.86666666666666
4935 44 4 0 48.64841369482491 63.32 55.23333333333333
4936 44 5 0.6666666666666666 48.64841369482491 65.7 55.23333333333333
4937 44 6 0 46.45448267190433 63.32 60.739999999999995
4938 44 1 0 49.7453792062852 63.32 54.599999999999994
4939 44 2 0 50.84234471774549 63.32 55.23333333333333
4940 44 3 -0.6666666666666666 50.84234471774549 65.7 55.23333333333333
4941 44 4 0 51.93931022920578 63.32 55.86666666666666
4942 44 5 0.6666666666666666 51.93931022920578 60.94 55.86666666666666
4943 44 6 0 49.7453792062852 63.32 50.35999999999999
4944 44 1 0 53.03627574066607 63.32 56.49999999999999
4945 44 2 0 54.13324125212636 63.32 55.86666666666666
4946 44 3 -0.6666666666666666 54.13324125212636 60.94 55.86666666666666
4947 44 4 0 55.23020676358665 63.32 55.23333333333333
4948 44 5 0.6666666666666666 55.23020676358665 65.7 55.23333333333333
4949 44 6 0 53.03627574066607 63.32 60.739999999999995
4950 44 1 0 56.327172275046934 63.32 54.599999999999994
4951 44 2 0 57.424137786507224 63.32 55.23333333333333
4952 44 3 -0.6666666666666666 57.424137786507224 65.7 55.23333333333333
4953 44 4 0 58.521103297967514 63.32 55.86666666666666
4954 44 5 0.6666666666666666 58.521103297967514 60.94 55.86666666666666
4955 44 6 0 56.327172275046934 63.32 50.35999999999999
4956 44 1 0 59.6180688094278 63.32 56.49999999999999
4957 44 2 0 60.71503432088809 63.32 55.86666666666666
4958 44 3 -0.6666666666666666 60.71503432088809 60.94 55.86666666666666
4959 44 4 0 61.81199983234838 63.32 55.23333333333333
4960 44 5 0.6666666666666666 61.81199983234838 65.7 55.23333333333333
4961 44 6 0 59.6180688094278 63.32 60.739999999999995
4962 44 1 0 62.90896534380867 63.32 54.599999999999994
4963 44 2 0 64.00593085526896 63.32 55.23333333333333
4964 44 3 -0.6666666666666666 64.00593085526896 65.7 55.23333333333333
4965 44 4 0 65.10289636672924 63.32 55.86666666666666
4966 44 5 0.6666666666666666 65.10289636672924 60.94 55.86666666666666
4967 44 6 0 62.90896534380867 63.32 50.35999999999999
4968 44 1 0 66.19986187818954 63.32 56.49999999999999
4969 44 2 0 67.29682738964982 63.32 55.86666666666666
4970 44 3 -0.6666666666666666 67.29682738964982 60.94 55.86666666666666
4971 44 4 0 68.39379290111012 63.32 55.23333333333333
4972 44 5 0.6666666666666666 68.39379290111012 65.7 55.23333333333333
4973 44 6 0 66.19986187818954 63.32 60.739999999999995
4974 44 1 0 69.4907584125704 63.32 54.599999999999994
4975 44 2 0 70.58772392403068 63.32 55.23333333333333
4976 44 3 -0.6666666666666666 70.58772392403068 65.7 55.23333333333333
4977 44 4 0 71.68468943549098 63.32 55.86666666666666
4978 44 5 0.6666666666666666 71.68468943549098 60.94 55.86666666666666
4979 44 6 0 69.4907584125704 63.32 50.35999999999999
4980 44 1 0 72.78165494695126 63.32 56.49999999999999
4981 44 2 0 73.87862045841155 63.32 55.86666666666666
4982 44 3 -0.6666666666666666 73.87862045841155 60.94 55.86666666666666
4983 44 4 0 74.97558596987184 63.32 55.23333333333333
4984 44 5 0.6666666666666666 74.97558596987184 65.7 55.23333333333333
4985 44 6 0 72.78165494695126 63.32 60.739999999999995
4986 44 1 0 76.07255148133214 63.32 54.599999999999994
4987 44 2 0 77.16951699279242 63.32 55.23333333333333
4988 44 3 -0.6666666666666666 77.16951699279242 65.7 55.23333333333333
4989 44 4 0 78.26648250425272 63.32 55.86666666666666
4990 44 5 0.6666666666666666 78.26648250425272 60.94 55.86666666666666
4991 44 6 0 76.07255148133214 63.32 50.35999999999999
4992 44 1 0 79.363448015713 63.32 56.49999999999999
4993 44 2 0 80.46041352717329 63.32 55.86666666666666
4994 44 3 -0.6666666666666666 80.46041352717329 60.94 55.86666666666666
4995 44 4 0 81.55737903863358 63.32 55.23333333333333
4996 44 5 0.6666666666666666 81.55737903863358 65.7 55.23333333333333
4997 44 6 0 79.363448015713 63.32 60.739999999999995
4998 44 1 0 82.65434455009387 63.32 54.599999999999994
4999 44 2 0 83.75131006155415 63.32 55.23333333333333
5000 44 3 -0.6666666666666666 83.75131006155415 65.7 55.23333333333333
5001 44 4 0 84.84827557301445 63.32 55.86666666666666
5002 44 5 0.6666666666666666 84.84827557301445 60.94 55.86666666666666
5003 44 6 0 82.65434455009387 63.32 50.35999999999999
5004 44 1 0 85.94524108447473 63.32 56.49999999999999
5005 44 2 0 87.04220659593501 63.32 55.86666666666666
5006 44 3 -0.6666666666666666 87.04220659593501 60.94 55.86666666666666
5007 44 4 0 88.13917210739531 63.32 55.23333333333333
5008 44 5 0.6666666666666666 88.13917210739531 65.7 55.23333333333333
5009 44 6 0 85.94524108447473 63.32 60.739999999999995
5010 44 1 0 89.2361376188556 63.32 54.599999999999994
5011 44 2 0 90.33310313031588 63.32 55.23333333333333
5012 44 3 -0.6666666666666666 90.33310313031588 65.7 55.23333333333333
5013 44 4 0 91.43006864177617 63.32 55.86666666666666
5014 44 5 0.6666666666666666 91.43006864177617 60.94 55.86666666666666
5015 44 6 0 89.2361376188556 63.32 50.35999999999999
5016 44 1 0 92.52703415323647 63.32 56.49999999999999
5017 45 1 0 30.0 68.08 54.599999999999994
5018 45 2 0 31.09696551146029 68.08 55.23333333333333
5019 45 3 -0.6666666666666666 31.09696551146029 70.46 55.23333333333333
5020 45 4 0 32.19393102292058 68.08 55.86666666666666
5021 45 5 0.6666666666666666 32.19393102292058 65.7 55.86666666666666
5022 45 1 0 33.29089653438086 68.08 56.49999999999999
5023 45 2 0 34.38786204584115 68.08 55.86666666666666
5024 45 3 -0.6666666666666666 34.38786204584115 65.7 55.86666666666666
5025 45 4 0 35.48482755730144 68.08 55.23333333333333
5026 45 5 0.6666666666666666 35.48482755730144 70.46 55.23333333333333
5027 45 6 0 33.29089653438086 68.08 60.739999999999995
5028 45 1 0 36.58179306876173 68.08 54.599999999999994
5029 45 2 0 37.67875858022202 68.08 55.23333333333333
5030 45 3 -0.6666666666666666 37.67875858022202 70.46 55.23333333333333
5031 45 4 0 38.775724091682314 68.08 55.86666666666666
5032 45 5 0.6666666666666666 38.775724091682314 65.7 55.86666666666666
5033 45 6 0 36.58179306876173 68.08 50.35999999999999
5034 45 1 0 39.872689603142604 68.08 56.49999999999999
5035 45 2 0 40.969655114602894 68.08 55.86666666666666
5036 45 3 -0.6666666666666666 40.969655114602894 65.7 55.86666666666666
5037 45 4 0 42.066620626063184 68.08 55.23333333333333
5038 45 5 0.6666666666666666 42.066620626063184 70.46 55.23333333333333
5039 45 6 0 39.872689603142604 68.08 60.739999999999995
5040 45 1 0 43.16358613752347 68.08 54.599999999999994
5041 45 2 0 44.26055164898376 68.08 55.23333333333333
5042 45 3 -0.6666666666666666 44.26055164898376 70.46 55.23333333333333
5043 45 4 0 45.35751716044405 68.08 55.86666666666666
5044 45 5 0.6666666666666666 45.35751716044405 65.7 55.86666666666666
5045 45 6 0 43.16358613752347 68.08 50.35999999999999
5046 45 1 0 46.45448267190433 68.08 56.49999999999999
5047 45 2 0 47.55144818336462 68.08 55.86666666666666
5048 45 3 -0.6666666666666666 47.55144818336462 65.7 55.86666666666666
5049 45 4 0 48.64841369482491 68.08 55.23333333333333
5050 45 5 0.6666666666666666 48.64841369482491 70.46 55.23333333333333
5051 45 6 0 46.45448267190433 68.08 60.739999999999995
5052 45 1 0 49.7453792062852 68.08 54.599999999999994
5053 45 2 0 50.84234471774549 68.08 55.23333333333333
5054 45 3 -0.6666666666666666 50.84234471774549 70.46 55.23333333333333
5055 45 4 0 51.93931022920578 68.08 55.86666666666666
5056 45 5 0.6666666666666666 51.93931022920578 65.7 55.86666666666666
5057 45 6 0 49.7453792062852 68.08 50.35999999999999
5058 45 1 0 53.03627574066607 68.08 56.49999999999999
5059 45 2 0 54.13324125212636 68.08 55.86666666666666
5060 45 3 -0.6666666666666666 54.13324125212636 65.7 55.86666666666666
5061 45 4 0 55.23020676358665 68.08 55.23333333333333
5062 45 5 0.6666666666666666 55.23020676358665 70.46 55.23333333333333
5063 45 6 0 53.03627574066607 68.08 60.739999999999995
5064 45 1 0 56.327172275046934 68.08 54.599999999999994
5065 45 2 0 57.424137786507224 68.08 55.23333333333333
5066 45 3 -0.6666666666666666 57.424137786507224 70.46 55.23333333333333
5067 45 4 0 58.521103297967514 68.08 55.86666666666666
5068 45 5 0.6666666666666666 58.521103297967514 65.7 55.86666666666666
5069 45 6 0 56.327172275046934 68.08 50.35999999999999
5070 45 1 0 59.6180688094278 68.08 56.49999999999999
5071 45 2 0 60.71503432088809 68.08 55.86666666666666
5072 45 3 -0.6666666666666666 60.71503432088809 65.7 55.86666666666666
5073 45 4 0 61.81199983234838 68.08 55.23333333333333
5074 45 5 0.6666666666666666 61.81199983234838 70.46 55.23333333333333
5075 45 6 0 59.6180688094278 68.08 60.739999999999995
5076 45 1 0 62.90896534380867 68.08 54.599999999999994
5077 45 2 0 64.00593085526896 68.08 55.23333333333333
5078 45 3 -0.6666666666666666 64.00593085526896 70.46 55.23333333333333
5079 45 4 0 65.10289636672924 68.08 55.86666666666666
5080 45 5 0.6666666666666666 65.10289636672924 65.7 55.86666666666666
5081 45 6 0 62.90896534380867 68.08 50.35999999999999
5082 45 1 0 66.19986187818954 68.08 56.49999999999999
5083 45 2 0 67.29682738964982 68.08 55.86666666666666
5084 45 3 -0.6666666666666666 67.29682738964982 65.7 55.86666666666666
5085 45 4 0 68.39379290111012 68.08 55.23333333333333
5086 45 5 0.6666666666666666 68.39379290111012 70.46 55.23333333333333
5087 45 6 0 66.19986187818954 68.08 60.739999999999995
5088 45 1 0 69.4907584125704 68.08 54.599999999999994
5089 45 2 0 70.58772392403068 68.08 55.23333333333333
5090 45 3 -0.6666666666666666 70.58772392403068 70.46 55.23333333333333
5091 45 4 0 71.68468943549098 68.08 55.86666666666666
5092 45 5 0.6666666666666666 71.68468943549098 65.7 55.86666666666666
5093 45 6 0 69.4907584125704 68.08 50.35999999999999
5094 45 1 0 72.78165494695126 68.08 56.49999999999999
5095 45 2 0 73.87862045841155 68.08 55.86666666666666
5096 45 3 -0.6666666666666666 73.87862045841155 65.7 55.86666666666666
5097 45 4 0 74.97558596987184 68.08 55.23333333333333
5098 45 5 0.6666666666666666 74.97558596987184 70.46 55.23333333333333
5099 45 6 0 72.78165494695126 68.08 60.739999999999995
5100 45 1 0 76.07255148133214 68.08 54.599999999999994
5101 45 2 0 77.16951699279242 68.08 55.23333333333333
5102 45 3 -0.6666666666666666 77.16951699279242 70.46 55.23333333333333
5103 45 4 0 78.26648250425272 68.08 55.86666666666666
5104 45 5 0.6666666666666666 78.26648250425272 65.7 55.86666666666666
5105 45 6 0 76.07255148133214 68.08 50.35999999999999
5106 45 1 0 79.363448015713 68.08 56.49999999999999
5107 45 2 0 80.46041352717329 68.08 55.86666666666666
5108 45 3 -0.6666666666666666 80.46041352717329 65.7 55.86666666666666
5109 45 4 0 81.55737903863358 68.08 55.23333333333333
5110 45 5 0.6666666666666666 81.55737903863358 70.46 55.23333333333333
5111 45 6 0 79.363448015713 68.08 60.739999999999995
5112 45 1 0 82.65434455009387 68.08 54.599999999999994
5113 45 2 0 83.75131006155415 68.08 55.23333333333333
5114 45 3 -0.6666666666666666 83.75131006155415 70.46 55.23333333333333
5115 45 4 0 84.84827557301445 68.08 55.86666666666666
5116 45 5 0.6666666666666666 84.84827557301445 65.7 55.86666666666666
5117 45 6 0 82.65434455009387 68.08 50.35999999999999
5118 45 1 0 85.94524108447473 68.08 56.49999999999999
5119 45 2 0 87.04220659593501 68.08 55.86666666666666
5120 45 3 -0.6666666666666666 87.04220659593501 65.7 55.86666666666666
5121 45 4 0 88.13917210739531 68.08 55.23333333333333
5122 45 5 0.6666666666666666 88.13917210739531 70.46 55.23333333333333
5123 45 6 0 85.94524108447473 68.08 60.739999999999995
5124 45 1 0 89.2361376188556 68.08 54.599999999999994
5125 45 2 0 90.33310313031588 68.08 55.23333333333333
5126 45 3 -0.6666666666666666 90.33310313031588 70.46 55.23333333333333
5127 45 4 0 91.43006864177617 68.08 55.86666666666666
5128 45 5 0.6666666666666666 91.43006864177617 65.7 55.86666666666666
5129 45 6 0 89.2361376188556 68.08 50.35999999999999
5130 45 1 0 92.52703415323647 68.08 56.49999999999999
5131 46 1 0 30.0 72.84 54.599999999999994
5132 46 2 0 31.09696551146029 72.84 55.23333333333333
5133 46 3 -0.6666666666666666 31.09696551146029 75.22 55.23333333333333
5134 46 4 0 32.19393102292058 72.84 55.86666666666666
5135 46 5 0.6666666666666666 32.19393102292058 70.46000000000001 55.86666666666666
5136 46 1 0 33.29089653438086 72.84 56.49999999999999
5137 46 2 0 34.38786204584115 72.84 55.86666666666666
5138 46 3 -0.6666666666666666 34.38786204584115 70.46000000000001 55.86666666666666
5139 46 4 0 35.48482755730144 72.84 55.23333333333333
5140 46 5 0.6666666666666666 35.48482755730144 75.22 55.23333333333333
5141 46 6 0 33.29089653438086 72.84 60.739999999999995
5142 46 1 0 36.58179306876173 72.84 54.599999999999994
5143 46 2 0 37.67875858022202 72.84 55.23333333333333
5144 46 3 -0.6666666666666666 37.67875858022202 75.22 55.23333333333333
5145 46 4 0 38.775724091682314 72.84 55.86666666666666
5146 46 5 0.6666666666666666 38.775724091682314 70.46000000000001 55.86666666666666
5147 46 6 0 36.58179306876173 72.84 50.35999999999999
5148 46 1 0 39.872689603142604 72.84 56.49999999999999
5149 46 2 0 40.969655114602894 72.84 55.86666666666666
5150 46 3 -0.6666666666666666 40.969655114602894 70.46000000000001 55.86666666666666
5151 46 4 0 42.066620626063184 72.84 55.23333333333333
5152 46 5 0.6666666666666666 42.066620626063184 75.22 55.23333333333333
5153 46 6 0 39.872689603142604 72.84 60.739999999999995
5154 46 1 0 43.16358613752347 72.84 54.599999999999994
5155 46 2 0 44.26055164898376 72.84 55.23333333333333
5156 46 3 -0.6666666666666666 44.26055164898376 75.22 55.23333333333333
5157 46 4 0 45.35751716044405 72.84 55.86666666666666
5158 46 5 0.6666666666666666 45.35751716044405 70.46000000000001 55.86666666666666
5159 46 6 0 43.16358613752347 72.84 50.35999999999999
5160 46 1 0 46.45448267190433 72.84 56.49999999999999
5161 46 2 0 47.55144818336462 72.84 55.86666666666666
5162 46 3 -0.6666666666666666 47.55144818336462 70.46000000000001 55.86666666666666
5163 46 4 0 48.64841369482491 72.84 55.23333333333333
5164 46 5 0.6666666666666666 48.64841369482491 75.22 55.23333333333333
5165 46 6 0 46.45448267190433 72.84 60.739999999999995
5166 46 1 0 49.7453792062852 72.84 54.599999999999994
5167 46 2 0 50.84234471774549 72.84 55.23333333333333
5168 46 3 -0.6666666666666666 50.84234471774549 75.22 55.23333333333333
5169 46 4 0 51.93931022920578 72.84 55.86666666666666
5170 46 5 0.6666666666666666 51.93931022920578 70.46000000000001 55.86666666666666
5171 46 6 0 49.7453792062852 72.84 50.35999999999999
5172 46 1 0 53.03627574066607 72.84 56.49999999999999
5173 46 2 0 54.13324125212636 72.84 55.86666666666666
5174 46 3 -0.6666666666666666 54.13324125212636 70.46000000000001 55.86666666666666
5175 46 4 0 55.23020676358665 72.84 55.23333333333333
5176 46 5 0.6666666666666666 55.23020676358665 75.22 55.23333333333333
5177 46 6 0 53.03627574066607 72.84 60.739999999999995
5178 46 1 0 56.327172275046934 72.84 54.599999999999994
5179 46 2 0 57.424137786507224 72.84 55.23333333333333
5180 46 3 -0.6666666666666666 57.424137786507224 75.22 55.23333333333333
5181 46 4 0 58.521103297967514 72.84 55.86666666666666
5182 46 5 0.6666666666666666 58.521103297967514 70.46000000000001 55.86666666666666
5183 46 6 0 56.327172275046934 72.84 50.35999999999999
5184 46 1 0 59.6180688094278 72.84 56.49999999999999
5185 46 2 0 60.71503432088809 72.84 55.86666666666666
5186 46 3 -0.6666666666666666 60.71503432088809 70.46000000000001 55.86666666666666
5187 46 4 0 61.81199983234838 72.84 55.23333333333333
5188 46 5 0.6666666666666666 61.81199983234838 75.22 55.23333333333333
5189 46 6 0 59.6180688094278 72.84 60.739999999999995
5190 46 1 0 62.90896534380867 72.84 54.599999999999994
5191 46 2 0 64.00593085526896 72.84 55.23333333333333
5192 46 3 -0.6666666666666666 64.00593085526896 75.22 55.23333333333333
5193 46 4 0 65.10289636672924 72.84 55.86666666666666
5194 46 5 0.6666666666666666 65.10289636672924 70.46000000000001 55.86666666666666
5195 46 6 0 62.90896534380867 72.84 50.35999999999999
5196 46 1 0 66.19986187818954 72.84 56.49999999999999
5197 46 2 0 67.29682738964982 72.84 55.86666666666666
5198 46 3 -0.6666666666666666 67.29682738964982 70.46000000000001 55.86666666666666
5199 46 4 0 68.39379290111012 72.84 55.23333333333333
5200 46 5 0.6666666666666666 68.39379290111012 75.22 55.23333333333333
5201 46 6 0 66.19986187818954 72.84 60.739999999999995
5202 46 1 0 69.4907584125704 72.84 54.599999999999994
5203 46 2 0 70.58772392403068 72.84 55.23333333333333
5204 46 3 -0.6666666666666666 70.58772392403068 75.22 55.23333333333333
5205 46 4 0 71.68468943549098 72.84 55.86666666666666
5206 46 5 0.6666666666666666 71.68468943549098 70.46000000000001 55.86666666666666
5207 46 6 0 69.4907584125704 72.84 50.35999999999999
5208 46 1 0 72.78165494695126 72.84 56.49999999999999
5209 46 2 0 73.87862045841155 72.84 55.86666666666666
5210 46 3 -0.6666666666666666 73.87862045841155 70.46000000000001 55.86666666666666
5211 46 4 0 74.97558596987184 72.84 55.23333333333333
5212 46 5 0.6666666666666666 74.97558596987184 75.22 55.23333333333333
5213 46 6 0 72.78165494695126 72.84 60.739999999999995
5214 46 1 0 76.07255148133214 72.84 54.599999999999994
5215 46 2 0 77.16951699279242 72.84 55.23333333333333
5216 46 3 -0.6666666666666666 77.16951699279242 75.22 55.23333333333333
5217 46 4 0 78.26648250425272 72.84 55.86666666666666
5218 46 5 0.6666666666666666 78.26648250425272 70.46000000000001 55.86666666666666
5219 46 6 0 76.07255148133214 72.84 50.35999999999999
5220 46 1 0 79.363448015713 72.84 56.49999999999999
5221 46 2 0 80.46041352717329 72.84 55.86666666666666
5222 46 3 -0.6666666666666666 80.46041352717329 70.46000000000001 55.86666666666666
5223 46 4 0 81.55737903863358 72.84 55.23333333333333
5224 46 5 0.6666666666666666 81.55737903863358 75.22 55.23333333333333
5225 46 6 0 79.363448015713 72.84 60.739999999999995
5226 46 1 0 82.65434455009387 72.84 54.599999999999994
5227 46 2 0 83.75131006155415 72.84 55.23333333333333
5228 46 3 -0.6666666666666666 83.75131006155415 75.22 55.23333333333333
5229 46 4 0 84.84827557301445 72.84 55.86666666666666
5230 46 5 0.6666666666666666 84.84827557301445 70.46000000000001 55.86666666666666
5231 46 6 0 82.65434455009387 72.84 50.35999999999999
5232 46 1 0 85.94524108447473 72.84 56.49999999999999
5233 46 2 0 87.04220659593501 72.84 55.86666666666666
5234 46 3 -0.6666666666666666 87.04220659593501 70.46000000000001 55.86666666666666
5235 46 4 0 88.13917210739531 72.84 55.23333333333333
5236 46 5 0.6666666666666666 88.13917210739531 75.22 55.23333333333333
5237 46 6 0 85.94524108447473 72.84 60.739999999999995
5238 46 1 0 89.2361376188556 72.84 54.599999999999994
5239 46 2 0 90.33310313031588 72.84 55.23333333333333
5240 46 3 -0.6666666666666666 90.33310313031588 75.22 55.23333333333333
5241 46 4 0 91.43006864177617 72.84 55.86666666666666
5242 46 5 0.6666666666666666 91.43006864177617 70.46000000000001 55.86666666666666
5243 46 6 0 89.2361376188556 72.84 50.35999999999999
5244 46 1 0 92.52703415323647 72.84 56.49999999999999
5245 47 1 0 30.0 77.6 54.599999999999994
5246 47 2 0 31.09696551146029 77.6 55.23333333333333
5247 47 3 -0.6666666666666666 31.09696551146029 79.97999999999999 55.23333333333333
5248 47 4 0 32.19393102292058 77.6 55.86666666666666
5249 47 5 0.6666666666666666 32.19393102292058 75.22 55.86666666666666
5250 47 1 0 33.29089653438086 77.6 56.49999999999999
5251 47 2 0 34.38786204584115 77.6 55.86666666666666
5252 47 3 -0.6666666666666666 34.38786204584115 75.22 55.86666666666666
5253 47 4 0 35.48482755730144 77.6 55.23333333333333
5254 47 5 0.6666666666666666 35.48482755730144 79.97999999999999 55.23333333333333
5255 47 6 0 33.29089653438086 77.6 60.739999999999995
5256 47 1 0 36.58179306876173 77.6 54.599999999999994
5257 47 2 0 37.67875858022202 77.6 55.23333333333333
5258 47 3 -0.6666666666666666 37.67875858022202 79.97999999999999 55.23333333333333
5259 47 4 0 38.775724091682314 77.6 55.86666666666666
5260 47 5 0.6666666666666666 38.775724091682314 75.22 55.86666666666666
5261 47 6 0 36.58179306876173 77.6 50.35999999999999
5262 47 1 0 39.872689603142604 77.6 56.49999999999999
5263 47 2 0 40.969655114602894 77.6 55.86666666666666
5264 47 3 -0.6666666666666666 40.969655114602894 75.22 55.86666666666666
5265 47 4 0 42.066620626063184 77.6 55.23333333333333
5266 47 5 0.6666666666666666 42.066620626063184 79.97999999999999 55.23333333333333
5267 47 6 0 39.872689603142604 77.6 60.739999999999995
5268 47 1 0 43.16358613752347 77.6 54.599999999999994
5269 47 2 0 44.26055164898376 77.6 55.23333333333333
5270 47 3 -0.6666666666666666 44.26055164898376 79.97999999999999 55.23333333333333
5271 47 4 0 45.35751716044405 77.6 55.86666666666666
5272 47 5 0.6666666666666666 45.35751716044405 75.22 55.86666666666666
5273 47 6 0 43.16358613752347 77.6 50.35999999999999
5274 47 1 0 46.45448267190433 77.6 56.49999999999999
5275 47 2 0 47.55144818336462 77.6 55.86666666666666
5276 47 3 -0.6666666666666666 47.55144818336462 75.22 55.86666666666666
5277 47 4 0 48.64841369482491 77.6 55.23333333333333
5278 47 5 0.6666666666666666 48.64841369482491 79.97999999999999 55.23333333333333
5279 47 6 0 46.45448267190433 77.6 60.739999999999995
5280 47 1 0 49.7453792062852 77.6 54.599999999999994
5281 47 2 0 50.84234471774549 77.6 55.23333333333333
5282 47 3 -0.6666666666666666 50.84234471774549 79.97999999999999 55.23333333333333
5283 47 4 0 51.93931022920578 77.6 55.86666666666666
5284 47 5 0.6666666666666666 51.93931022920578 75.22 55.86666666666666
5285 47 6 0 49.7453792062852 77.6 50.35999999999999
5286 47 1 0 53.03627574066607 77.6 56.49999999999999
5287 47 2 0 54.13324125212636 77.6 55.86666666666666
5288 47 3 -0.6666666666666666 54.13324125212636 75.22 55.86666666666666
5289 47 4 0 55.23020676358665 77.6 55.23333333333333
5290 47 5 0.6666666666666666 55.23020676358665 79.97999999999999 55.23333333333333
5291 47 6 0 53.03627574066607 77.6 60.739999999999995
5292 47 1 0 56.327172275046934 77.6 54.599999999999994
5293 47 2 0 57.424137786507224 77.6 55.23333333333333
5294 47 3 -0.6666666666666666 57.424137786507224 79.97999999999999 55.23333333333333
5295 47 4 0 58.521103297967514 77.6 55.86666666666666
5296 47 5 0.6666666666666666 58.521103297967514 75.22 55.86666666666666
5297 47 6 0 56.327172275046934 77.6 50.35999999999999
5298 47 1 0 59.6180688094278 77.6 56.49999999999999
5299 47 2 0 60.71503432088809 77.6 55.86666666666666
5300 47 3 -0.6666666666666666 60.71503432088809 75.22 55.86666666666666
5301 47 4 0 61.81199983234838 77.6 55.23333333333333
5302 47 5 0.6666666666666666 61.81199983234838 79.97999999999999 55.23333333333333
5303 47 6 0 59.6180688094278 77.6 60.739999999999995
5304 47 1 0 62.90896534380867 77.6 54.599999999999994
5305 47 2 0 64.00593085526896 77.6 55.23333333333333
5306 47 3 -0.6666666666666666 64.00593085526896 79.97999999999999 55.23333333333333
5307 47 4 0 65.10289636672924 77.6 55.86666666666666
5308 47 5 0.6666666666666666 65.10289636672924 75.22 55.86666666666666
5309 47 6 0 62.90896534380867 77.6 50.35999999999999
5310 47 1 0 66.19986187818954 77.6 56.49999999999999
5311 47 2 0 67.29682738964982 77.6 55.86666666666666
5312 47 3 -0.6666666666666666 67.29682738964982 75.22 55.86666666666666
5313 47 4 0 68.39379290111012 77.6 55.23333333333333
5314 47 5 0.6666666666666666 68.39379290111012 79.97999999999999 55.23333333333333
5315 47 6 0 66.19986187818954 77.6 60.739999999999995
5316 47 1 0 69.4907584125704 77.6 54.599999999999994
5317 47 2 0 70.58772392403068 77.6 55.23333333333333
5318 47 3 -0.6666666666666666 70.58772392403068 79.97999999999999 55.23333333333333
5319 47 4 0 71.68468943549098 77.6 55.86666666666666
5320 47 5 0.6666666666666666 71.68468943549098 75.22 55.86666666666666
5321 47 6 0 69.4907584125704 77.6 50.35999999999999
5322 47 1 0 72.78165494695126 77.6 56.49999999999999
5323 47 2 0 73.87862045841155 77.6 55.86666666666666
5324 47 3 -0.6666666666666666 73.87862045841155 75.22 55.86666666666666
5325 47 4 0 74.97558596987184 77.6 55.23333333333333
5326 47 5 0.6666666666666666 74.97558596987184 79.97999999999999 55.23333333333333
5327 47 6 0 72.78165494695126 77.6 60.739999999999995
5328 47 1 0 76.07255148133214 77.6 54.599999999999994
5329 47 2 0 77.16951699279242 77.6 55.23333333333333
5330 47 3 -0.6666666666666666 77.16951699279242 79.97999999999999 55.23333333333333
5331 47 4 0 78.26648250425272 77.6 55.86666666666666
5332 47 5 0.6666666666666666 78.26648250425272 75.22 55.86666666666666
5333 47 6 0 76.07255148133214 77.6 50.35999999999999
5334 47 1 0 79.363448015713 77.6 56.49999999999999
5335 47 2 0 80.46041352717329 77.6 55.86666666666666
5336 47 3 -0.6666666666666666 80.46041352717329 75.22 55.86666666666666
5337 47 4 0 81.55737903863358 77.6 55.23333333333333
5338 47 5 0.6666666666666666 81.55737903863358 79.97999999999999 55.23333333333333
5339 47 6 0 79.363448015713 77.6 60.739999999999995
5340 47 1 0 82.65434455009387 77.6 54.599999999999994
5341 47 2 0 83.75131006155415 77.6 55.23333333333333
5342 47 3 -0.6666666666666666 83.75131006155415 79.97999999999999 55.23333333333333
5343 47 4 0 84.84827557301445 77.6 55.86666666666666
5344 47 5 0.6666666666666666 84.84827557301445 75.22 55.86666666666666
5345 47 6 0 82.65434455009387 77.6 50.35999999999999
5346 47 1 0 85.94524108447473 77.6 56.49999999999999
5347 47 2 0 87.04220659593501 77.6 55.86666666666666
5348 47 3 -0.6666666666666666 87.04220659593501 75.22 55.86666666666666
5349 47 4 0 88.13917210739531 77.6 55.23333333333333
5350 47 5 0.6666666666666666 88.13917210739531 79.97999999999999 55.23333333333333
5351 47 6 0 85.94524108447473 77.6 60.739999999999995
5352 47 1 0 89.2361376188556 77.6 54.599999999999994
5353 47 2 0 90.33310313031588 77.6 55.23333333333333
5354 47 3 -0.6666666666666666 90.33310313031588 79.97999999999999 55.23333333333333
5355 47 4 0 91.43006864177617 77.6 55.86666666666666
5356 47 5 0.6666666666666666 91.43006864177617 75.22 55.86666666666666
5357 47 6 0 89.2361376188556 77.6 50.35999999999999
5358 47 1 0 92.52703415323647 77.6 56.49999999999999
5359 48 1 0 30.0 82.36 54.599999999999994
5360 48 2 0 31.09696551146029 82.36 55.23333333333333
5361 48 3 -0.6666666666666666 31.09696551146029 84.74 55.23333333333333
5362 48 4 0 32.19393102292058 82.36 55.86666666666666
5363 48 5 0.6666666666666666 32.19393102292058 79.98 55.86666666666666
5364 48 1 0 33.29089653438086 82.36 56.49999999999999
5365 48 2 0 34.38786204584115 82.36 55.86666666666666
5366 48 3 -0.6666666666666666 34.38786204584115 79.98 55.86666666666666
5367 48 4 0 35.48482755730144 82.36 55.23333333333333
5368 48 5 0.6666666666666666 35.48482755730144 84.74 55.23333333333333
5369 48 6 0 33.29089653438086 82.36 60.739999999999995
5370 48 1 0 36.58179306876173 82.36 54.599999999999994
5371 48 2 0 37.67875858022202 82.36 55.23333333333333
5372 48 3 -0.6666666666666666 37.67875858022202 84.74 55.23333333333333
5373 48 4 0 38.775724091682314 82.36 55.86666666666666
5374 48 5 0.6666666666666666 38.775724091682314 79.98 55.86666666666666
5375 48 6 0 36.58179306876173 82.36 50.35999999999999
5376 48 1 0 39.872689603142604 82.36 56.49999999999999
5377 48 2 0 40.969655114602894 82.36 55.86666666666666
5378 48 3 -0.6666666666666666 40.969655114602894 79.98 55.86666666666666
5379 48 4 0 42.066620626063184 82.36 55.23333333333333
5380 48 5 0.6666666666666666 42.066620626063184 84.74 55.23333333333333
5381 48 6 0 39.872689603142604 82.36 60.739999999999995
5382 48 1 0 43.16358613752347 82.36 54.599999999999994
5383 48 2 0 44.26055164898376 82.36 55.23333333333333
5384 48 3 -0.6666666666666666 44.26055164898376 84.74 55.23333333333333
5385 48 4 0 45.35751716044405 82.36 55.86666666666666
5386 48 5 0.6666666666666666 45.35751716044405 79.98 55.86666666666666
5387 48 6 0 43.16358613752347 82.36 50.35999999999999
5388 48 1 0 46.45448267190433 82.36 56.49999999999999
5389 48 2 0 47.55144818336462 82.36 55.86666666666666
5390 48 3 -0.6666666666666666 47.55144818336462 79.98 55.86666666666666
5391 48 4 0 48.64841369482491 82.36 55.23333333333333
5392 48 5 0.6666666666666666 48.64841369482491 84.74 55.23333333333333
5393 48 6 0 46.45448267190433 82.36 60.739999999999995
5394 48 1 0 49.7453792062852 82.36 54.599999999999994
5395 48 2 0 50.84234471774549 82.36 55.23333333333333
5396 48 3 -0.6666666666666666 50.84234471774549 84.74 55.23333333333333
5397 48 4 0 51.93931022920578 82.36 55.86666666666666
5398 48 5 0.6666666666666666 51.93931022920578 79.98 55.86666666666666
5399 48 6 0 49.7453792062852 82.36 50.35999999999999
5400 48 1 0 53.03627574066607 82.36 56.49999999999999
5401 48 2 0 54.13324125212636 82.36 55.86666666666666
5402 48 3 -0.6666666666666666 54.13324125212636 79.98 55.86666666666666
5403 48 4 0 55.23020676358665 82.36 55.23333333333333
5404 48 5 0.6666666666666666 55.23020676358665 84.74 55.23333333333333
5405 48 6 0 53.03627574066607 82.36 60.739999999999995
5406 48 1 0 56.327172275046934 82.36 54.599999999999994
5407 48 2 0 57.424137786507224 82.36 55.23333333333333
5408 48 3 -0.6666666666666666 57.424137786507224 84.74 55.23333333333333
5409 48 4 0 58.521103297967514 82.36 55.86666666666666
5410 48 5 0.6666666666666666 58.521103297967514 79.98 55.86666666666666
5411 48 6 0 56.327172275046934 82.36 50.35999999999999
5412 48 1 0 59.6180688094278 82.36 56.49999999999999
5413 48 2 0 60.71503432088809 82.36 55.86666666666666
5414 48 3 -0.6666666666666666 60.71503432088809 79.98 55.86666666666666
5415 48 4 0 61.81199983234838 82.36 55.23333333333333
5416 48 5 0.6666666666666666 61.81199983234838 84.74 55.23333333333333
5417 48 6 0 59.6180688094278 82.36 60.739999999999995
5418 48 1 0 62.90896534380867 82.36 54.599999999999994
5419 48 2 0 64.00593085526896 82.36 55.23333333333333
5420 48 3 -0.6666666666666666 64.00593085526896 84.74 55.23333333333333
5421 48 4 0 65.10289636672924 82.36 55.86666666666666
5422 48 5 0.6666666666666666 65.10289636672924 79.98 55.86666666666666
5423 48 6 0 62.90896534380867 82.36 50.35999999999999
5424 48 1 0 66.19986187818954 82.36 56.49999999999999
5425 48 2 0 67.29682738964982 82.36 55.86666666666666
5426 48 3 -0.6666666666666666 67.29682738964982 79.98 55.86666666666666
5427 48 4 0 68.39379290111012 82.36 55.23333333333333
5428 48 5 0.6666666666666666 68.39379290111012 84.74 55.23333333333333
5429 48 6 0 66.19986187818954 82.36 60.739999999999995
5430 48 1 0 69.4907584125704 82.36 54.599999999999994
5431 48 2 0 70.58772392403068 82.36 55.23333333333333
5432 48 3 -0.6666666666666666 70.58772392403068 84.74 55.23333333333333
5433 48 4 0 71.68468943549098 82.36 55.86666666666666
5434 48 5 0.6666666666666666 71.68468943549098 79.98 55.86666666666666
5435 48 6 0 69.4907584125704 82.36 50.35999999999999
5436 48 1 0 72.78165494695126 82.36 56.49999999999999
5437 48 2 0 73.87862045841155 82.36 55.86666666666666
5438 48 3 -0.6666666666666666 73.87862045841155 79.98 55.86666666666666
5439 48 4 0 74.97558596987184 82.36 55.23333333333333
5440 48 5 0.6666666666666666 74.97558596987184 84.74 55.23333333333333
5441 48 6 0 72.78165494695126 82.36 60.739999999999995
5442 48 1 0 76.07255148133214 82.36 54.599999999999994
5443 48 2 0 77.16951699279242 82.36 55.23333333333333
5444 48 3 -0.6666666666666666 77.16951699279242 84.74 55.23333333333333
5445 48 4 0 78.26648250425272 82.36 55.86666666666666
5446 48 5 0.6666666666666666 78.26648250425272 79.98 55.86666666666666
5447 48 6 0 76.07255148133214 82.36 50.35999999999999
5448 48 1 0 79.363448015713 82.36 56.49999999999999
5449 48 2 0 80.46041352717329 82.36 55.86666666666666
5450 48 3 -0.6666666666666666 80.46041352717329 79.98 55.86666666666666
5451 48 4 0 81.55737903863358 82.36 55.23333333333333
5452 48 5 0.6666666666666666 81.55737903863358 84.74 55.23333333333333
5453 48 6 0 79.363448015713 82.36 60.739999999999995
5454 48 1 0 82.65434455009387 82.36 54.599999999999994
5455 48 2 0 83.75131006155415 82.36 55.23333333333333
5456 48 3 -0.6666666666666666 83.75131006155415 84.74 55.23333333333333
5457 48 4 0 84.84827557301445 82.36 55.86666666666666
5458 48 5 0.6666666666666666 84.84827557301445 79.98 55.86666666666666
5459 48 6 0 82.65434455009387 82.36 50.35999999999999
5460 48 1 0 85.94524108447473 82.36 56.49999999999999
5461 48 2 0 87.04220659593501 82.36 55.86666666666666
5462 48 3 -0.6666666666666666 87.04220659593501 79.98 55.86666666666666
5463 48 4 0 88.13917210739531 82.36 55.23333333333333
5464 48 5 0.6666666666666666 88.13917210739531 84.74 55.23333333333333
5465 48 6 0 85.94524108447473 82.36 60.739999999999995
5466 48 1 0 89.2361376188556 82.36 54.599999999999994
5467 48 2 0 90.33310313031588 82.36 55.23333333333333
5468 48 3 -0.6666666666666666 90.33310313031588 84.74 55.23333333333333
5469 48 4 0 91.43006864177617 82.36 55.86666666666666
5470 48 5 0.6666666666666666 91.43006864177617 79.98 55.86666666666666
5471 48 6 0 89.2361376188556 82.36 50.35999999999999
5472 48 1 0 92.52703415323647 82.36 56.49999999999999
5473 49 1 0 35.07367659328269 23.474816856725177 34.70720563233896
5474 49 2 0 36.17064210474298 23.474816856725177 35.340538965672295
5475 49 3 -0.6666666666666666 36.17064210474298 25.854816856725176 35.340538965672295
5476 49 4 0 37.26760761620327 23.474816856725177 35.97387229900563
5477 49 5 0.6666666666666666 37.26760761620327 21.094816856725178 35.97387229900563
5478 49 1 0 38.36457312766356 23.474816856725177 36.60720563233896
5479 49 2 0 39.46153863912385 23.474816856725177 35.97387229900563
5480 49 3 -0.6666666666666666 39.46153863912385 21.094816856725178 35.97387229900563
5481 49 4 0 40.55850415058414 23.474816856725177 35.340538965672295
5482 49 5 0.6666666666666666 40.55850415058414 25.854816856725176 35.340538965672295
5483 49 6 0 38.36457312766356 23.474816856725177 40.84720563233896
5484 49 1 0 41.655469662044425 23.474816856725177 34.70720563233896
5485 49 2 0 42.752435173504715 23.474816856725177 35.340538965672295
5486 49 3 -0.6666666666666666 42.752435173504715 25.854816856725176 35.340538965672295
5487 49 4 0 43.849400684965005 23.474816856725177 35.97387229900563
5488 49 5 0.6666666666666666 43.849400684965005 21.094816856725178 35.97387229900563
5489 49 6 0 41.655469662044425 23.474816856725177 30.46720563233896
5490 49 1 0 44.94636619642529 23.474816856725177 36.60720563233896
5491 49 2 0 46.04333170788558 23.474816856725177 35.97387229900563
5492 49 3 -0.6666666666666666 46.04333170788558 21.094816856725178 35.97387229900563
5493 49 4 0 47.14029721934587 23.474816856725177 35.340538965672295
5494 49 5 0.6666666666666666 47.14029721934587 25.854816856725176 35.340538965672295
5495 49 6 0 44.94636619642529 23.474816856725177 40.84720563233896
5496 49 1 0 48.23726273080616 23.474816856725177 34.70720563233896
5497 49 2 0 49.33422824226645 23.474816856725177 35.340538965672295
5498 49 3 -0.6666666666666666 49.33422824226645 25.854816856725176 35.340538965672295
5499 49 4 0 50.43119375372674 23.474816856725177 35.97387229900563
5500 49 5 0.6666666666666666 50.43119375372674 21.094816856725178 35.97387229900563
5501 49 6 0 48.23726273080616 23.474816856725177 30.46720563233896
5502 49 1 0 51.52815926518703 23.474816856725177 36.60720563233896
5503 49 2 0 52.62512477664732 23.474816856725177 35.97387229900563
5504 49 3 -0.6666666666666666 52.62512477664732 21.094816856725178 35.97387229900563
5505 49 4 0 53.72209028810761 23.474816856725177 35.340538965672295
5506 49 5 0.6666666666666666 53.72209028810761 25.854816856725176 35.340538965672295
5507 49 6 0 51.52815926518703 23.474816856725177 40.84720563233896
5508 49 1 0 54.81905579956789 23.474816856725177 34.70720563233896
5509 49 2 0 55.91602131102818 23.474816856725177 35.340538965672295
5510 49 3 -0.6666666666666666 55.91602131102818 25.854816856725176 35.340538965672295
5511 49 4 0 57.01298682248847 23.474816856725177 35.97387229900563
5512 49 5 0.6666666666666666 57.01298682248847 21.094816856725178 35.97387229900563
5513 49 6 0 54.81905579956789 23.474816856725177 30.46720563233896
5514 49 1 0 58.109952333948755 23.474816856725177 36.60720563233896
5515 49 2 0 59.206917845409045 23.474816856725177 35.97387229900563
5516 49 3 -0.6666666666666666 59.206917845409045 21.094816856725178 35.97387229900563
5517 49 4 0 60.303883356869335 23.474816856725177 35.340538965672295
5518 49 5 0.6666666666666666 60.303883356869335 25.854816856725176 35.340538965672295
5519 49 6 0 58.109952333948755 23.474816856725177 40.84720563233896
5520 49 1 0 61.400848868329625 23.474816856725177 34.70720563233896
5521 49 2 0 62.497814379789915 23.474816856725177 35.340538965672295
5522 49 3 -0.6666666666666666 62.497814379789915 25.854816856725176 35.340538965672295
5523 49 4 0 63.594779891250205 23.474816856725177 35.97387229900563
5524 49 5 0.6666666666666666 63.594779891250205 21.094816856725178 35.97387229900563
5525 49 6 0 61.400848868329625 23.474816856725177 30.46720563233896
5526 49 1 0 64.6917454027105 23.474816856725177 36.60720563233896
5527 49 2 0 65.78871091417078 23.474816856725177 35.97387229900563
5528 49 3 -0.6666666666666666 65.78871091417078 21.094816856725178 35.97387229900563
5529 49 4 0 66.88567642563108 23.474816856725177 35.340538965672295
5530 49 5 0.6666666666666666 66.88567642563108 25.854816856725176 35.340538965672295
5531 49 6 0 64.6917454027105 23.474816856725177 40.84720563233896
5532 49 1 0 67.98264193709136 23.474816856725177 34.70720563233896
5533 49 2 0 69.07960744855164 23.474816856725177 35.340538965672295
5534 49 3 -0.6666666666666666 69.07960744855164 25.854816856725176 35.340538965672295
5535 49 4 0 70.17657296001194 23.474816856725177 35.97387229900563
5536 49 5 0.6666666666666666 70.17657296001194 21.094816856725178 35.97387229900563
5537 49 6 0 67.98264193709136 23.474816856725177 30.46720563233896
5538 49 1 0 71.27353847147222 23.474816856725177 36.60720563233896
5539 49 2 0 72.3705039829325 23.474816856725177 35.97387229900563
5540 49 3 -0.6666666666666666 72.3705039829325 21.094816856725178 35.97387229900563
5541 49 4 0 73.4674694943928 23.474816856725177 35.340538965672295
5542 49 5 0.6666666666666666 73.4674694943928 25.854816856725176 35.340538965672295
5543 49 6 0 71.27353847147222 23.474816856725177 40.84720563233896
5544 49 1 0 74.56443500585308 23.474816856725177 34.70720563233896
5545 49 2 0 75.66140051731337 23.474816856725177 35.340538965672295
5546 49 3 -0.6666666666666666 75.66140051731337 25.854816856725176 35.340538965672295
5547 49 4 0 76.75836602877366 23.474816856725177 35.97387229900563
5548 49 5 0.6666666666666666 76.75836602877366 21.094816856725178 35.97387229900563
5549 49 6 0 74.56443500585308 23.474816856725177 30.46720563233896
5550 49 1 0 77.85533154023395 23.474816856725177 36.60720563233896
5551 49 2 0 78.95229705169423 23.474816856725177 35.97387229900563
5552 49 3 -0.6666666666666666 78.95229705169423 21.094816856725178 35.97387229900563
5553 49 4 0 80.04926256315453 23.474816856725177 35.340538965672295
5554 49 5 0.6666666666666666 80.04926256315453 25.854816856725176 35.340538965672295
5555 49 6 0 77.85533154023395 23.474816856725177 40.84720563233896
5556 49 1 0 81.14622807461483 23.474816856725177 34.70720563233896
5557 49 2 0 82.24319358607511 23.474816856725177 35.340538965672295
5558 49 3 -0.6666666666666666 82.24319358607511 25.854816856725176 35.340538965672295
5559 49 4 0 83.3401590975354 23.474816856725177 35.97387229900563
5560 49 5 0.6666666666666666 83.3401590975354 21.094816856725178 35.97387229900563
5561 49 6 0 81.14622807461483 23.474816856725177 30.46720563233896
5562 49 1 0 84.4371246089957 23.474816856725177 36.60720563233896
5563 49 2 0 85.53409012045599 23.474816856725177 35.97387229900563
5564 49 3 -0.6666666666666666 85.53409012045599 21.094816856725178 35.97387229900563
5565 49 4 0 86.63105563191628 23.474816856725177 35.340538965672295
5566 49 5 0.6666666666666666 86.63105563191628 25.854816856725176 35.340538965672295
5567 49 6 0 84.4371246089957 23.474816856725177 40.84720563233896
5568 49 1 0 87.72802114337657 23.474816856725177 34.70720563233896
5569 49 2 0 88.82498665483685 23.474816856725177 35.340538965672295
5570 49 3 -0.6666666666666666 88.82498665483685 25.854816856725176 35.340538965672295
5571 49 4 0 89.92195216629715 23.474816856725177 35.97387229900563
5572 49 5 0.6666666666666666 89.92195216629715 21.094816856725178 35.97387229900563
5573 49 6 0 87.72802114337657 23.474816856725177 30.46720563233896
5574 49 1 0 91.01891767775743 23.474816856725177 36.60720563233896
5575 49 2 0 92.11588318921771 23.474816856725177 35.97387229900563
5576 49 3 -0.6666666666666666 92.11588318921771 21.094816856725178 35.97387229900563
5577 49 4 0 93.21284870067801 23.474816856725177 35.340538965672295
5578 49 5 0.6666666666666666 93.21284870067801 25.854816856725176 35.340538965672295
5579 49 6 0 91.01891767775743 23.474816856725177 40.84720563233896
5580 49 1 0 94.30981421213829 23.474816856725177 34.70720563233896
5581 49 2 0 95.40677972359858 23.474816856725177 35.340538965672295
5582 49 3 -0.6666666666666666 95.40677972359858 25.854816856725176 35.340538965672295
5583 49 4 0 96.50374523505887 23.474816856725177 35.97387229900563
5584 49 5 0.6666666666666666 96.50374523505887 21.094816856725178 35.97387229900563
5585 49 6 0 94.30981421213829 23.474816856725177 30.46720563233896
5586 49 1 0 97.60071074651916 23.474816856725177 36.60720563233896

 Bonds

1 1 1 6
2 2 1 2
3 2 4 6
4 3 2 3
5 3 4 5
6 1 6 12
7 2 6 7
8 2 9 12
9 3 7 8
10 3 9 10
11 4 6 11
12 1 12 18
13 2 12 13
14 2 15 18
15 3 13 14
16 3 15 16
17 4 12 17
18 1 18 24
19 2 18 19
20 2 21 24
21 3 19 20
22 3 21 22
23 4 18 23
24 1 24 30
25 2 24 25
26 2 27 30
27 3 25 26
28 3 27 28
29 4 24 29
30 1 30 36
31 2 30 31
32 2 33 36
33 3 31 32
34 3 33 34
35 4 30 35
36 1 36 42
37 2 36 37
38 2 39 42
39 3 37 38
40 3 39 40
41 4 36 41
42 1 42 48
43 2 42 43
44 2 45 48
45 3 43 44
46 3 45 46
47 4 42 47
48 1 48 54
49 2 48 49
50 2 51 54
51 3 49 50
52 3 51 52
53 4 48 53
54 1 54 60
55 2 54 55
56 2 57 60
57 3 55 56
58 3 57 58
59 4 54 59
60 1 60 66
61 2 60 61
62 2 63 66
63 3 61 62
64 3 63 64
65 4 60 65
66 1 66 72
67 2 66 67
68 2 69 72
69 3 67 68
70 3 69 70
71 4 66 71
72 1 72 78
73 2 72 73
74 2 75 78
75 3 73 74
76 3 75 76
77 4 72 77
78 1 78 84
79 2 78 79
80 2 81 84
81 3 79 80
82 3 81 82
83 4 78 83
84 1 84 90
85 2 84 85
86 2 87 90
87 3 85 86
88 3 87 88
89 4 84 89
90 1 90 96
91 2 90 91
92 2 93 96
93 3 91 92
94 3 93 94
95 4 90 95
96 1 96 102
97 2 96 97
98 2 99 102
99 3 97 98
100 3 99 100
101 4 96 101
102 1 102 108
103 2 102 103
104 2 105 108
105 3 103 104
106 3 105 106
107 4 102 107
108 1 108 114
109 2 108 109
110 2 111 114
111 3 109 110
112 3 111 112
113 4 108 113
114 1 115 120
115 2 115 116
116 2 118 120
117 3 116 117
118 3 118 119
119 1 120 126
120 2 120 121
121 2 123 126
122 3 121 122
123 3 123 124
124 4 120 125
125 1 126 132
126 2 126 127
127 2 129 132
128 3 127 128
129 3 129 130
130 4 126 131
131 1 132 138
132 2 132 133
133 2 135 138
134 3 133 134
135 3 135 136
136 4 132 137
137 1 138 144
138 2 138 139
139 2 141 144
140 3 139 140
141 3 141 142
142 4 138 143
143 1 144 150
144 2 144 145
145 2 147 150
146 3 145 146
147 3 147 148
148 4 144 149
149 1 150 156
150 2 150 151
151 2 153 156
152 3 151 152
153 3 153 154
154 4 150 155
155 1 156 162
156 2 156 157
157 2 159 162
158 3 157 158
159 3 159 160
160 4 156 161
161 1 162 168
162 2 162 163
163 2 165 168
164 3 163 164
165 3 165 166
166 4 162 167
167 1 168 174
168 2 168 169
169 2 171 174
170 3 169 170
171 3 171 172
172 4 168 173
173 1 174 180
174 2 174 175
175 2 177 180
176 3 175 176
177 3 177 178
178 4 174 179
179 1 180 186
180 2 180 181
181 2 183 186
182 3 181 182
183 3 183 184
184 4 180 185
185 1 186 192
186 2 186 187
187 2 189 192
188 3 187 188
189 3 189 190
190 4 186 191
191 1 192 198
192 2 192 193
193 2 195 198
194 3 193 194
195 3 195 196
196 4 192 197
197 1 198 204
198 2 198 199
199 2 201 204
200 3 199 200
201 3 201 202
202 4 198 203
203 1 204 210
204 2 204 205
205 2 207 210
206 3 205 206
207 3 207 208
208 4 204 209
209 1 210 216
210 2 210 211
211 2 213 216
212 3 211 212
213 3 213 214
214 4 210 215
215 1 216 222
216 2 216 217
217 2 219 222
218 3 217 218
219 3 219 220
220 4 216 221
221 1 222 228
222 2 222 223
223 2 225 228
224 3 223 224
225 3 225 226
226 4 222 227
227 1 229 234
228 2 229 230
229 2 232 234
230 3 230 231
231 3 232 233
232 1 234 240
233 2 234 235
234 2 237 240
235 3 235 236
236 3 237 238
237 4 234 239
238 1 240 246
239 2 240 241
240 2 243 246
241 3 241 242
242 3 243 244
243 4 240 245
244 1 246 252
245 2 246 247
246 2 249 252
247 3 247 248
248 3 249 250
249 4 246 251
250 1 252 258
251 2 252 253
252 2 255 258
253 3 253 254
254 3 255 256
255 4 252 257
256 1 258 264
257 2 258 259
258 2 261 264
259 3 259 260
260 3 261 262
261 4 258 263
262 1 264 270
263 2 264 265
264 2 267 270
265 3 265 266
266 3 267 268
267 4 264 269
268 1 270 276
269 2 270 271
270 2 273 276
271 3 271 272
272 3 273 274
273 4 270 275
274 1 276 282
275 2 276 277
276 2 279 282
277 3 277 278
278 3 279 280
279 4 276 281
280 1 282 288
281 2 282 283
282 2 285 288
283 3 283 284
284 3 285 286
285 4 282 287
286 1 288 294
287 2 288 289
288 2 291 294
289 3 289 290
290 3 291 292
291 4 288 293
292 1 294 300
293 2 294 295
294 2 297 300
295 3 295 296
296 3 297 298
297 4 294 299
298 1 300 306
299 2 300 301
300 2 303 306
301 3 301 302
302 3 303 304
303 4 300 305
304 1 306 312
305 2 306 307
306 2 309 312
307 3 307 308
308 3 309 310
309 4 306 311
310 1 312 318
311 2 312 313
312 2 315 318
313 3 313 314
314 3 315 316
315 4 312 317
316 1 318 324
317 2 318 319
318 2 321 324
319 3 319 320
320 3 321 322
321 4 318 323
322 1 324 330
323 2 324 325
324 2 327 330
325 3 325 326
326 3 327 328
327 4 324 329
328 1 330 336
329 2 330 331
330 2 333 336
331 3 331 332
332 3 333 334
333 4 330 335
334 1 336 342
335 2 336 337
336 2 339 342
337 3 337 338
338 3 339 340
339 4 336 341
340 1 343 348
341 2 343 344
342 2 346 348
343 3 344 345
344 3 346 347
345 1 348 354
346 2 348 349
347 2 351 354
348 3 349 350
349 3 351 352
350 4 348 353
351 1 354 360
352 2 354 355
353 2 357 360
354 3 355 356
355 3 357 358
356 4 354 359
357 1 360 366
358 2 360 361
359 2 363 366
360 3 361 362
361 3 363 364
362 4 360 365
363 1 366 372
364 2 366 367
365 2 369 372
366 3 367 368
367 3 369 370
368 4 366 371
369 1 372 378
370 2 372 373
371 2 375 378
372 3 373 374
373 3 375 376
374 4 372 377
375 1 378 384
376 2 378 379
377 2 381 384
378 3 379 380
379 3 381 382
380 4 378 383
381 1 384 390
382 2 384 385
383 2 387 390
384 3 385 386
385 3 387 388
386 4 384 389
387 1 390 396
388 2 390 391
389 2 393 396
390 3 391 392
391 3 393 394
392 4 390 395
393 1 396 402
394 2 396 397
395 2 399 402
396 3 397 398
397 3 399 400
398 4 396 401
399 1 402 408
400 2 402 403
401 2 405 408
402 3 403 404
403 3 405 406
404 4 402 407
405 1 408 414
406 2 408 409
407 2 411 414
408 3 409 410
409 3 411 412
410 4 408 413
411 1 414 420
412 2 414 415
413 2 417 420
414 3 415 416
415 3 417 418
416 4 414 419
417 1 420 426
418 2 420 421
419 2 423 426
420 3 421 422
421 3 423 424
422 4 420 425
423 1 426 432
424 2 426 427
425 2 429 432
426 3 427 428
427 3 429 430
428 4 426 431
429 1 432 438
430 2 432 433
431 2 435 438
432 3 433 434
433 3 435 436
434 4 432 437
435 1 438 444
436 2 438 439
437 2 441 444
438 3 439 440
439 3 441 442
440 4 438 443
441 1 444 450
442 2 444 445
443 2 447 450
444 3 445 446
445 3 447 448
446 4 444 449
447 1 450 456
448 2 450 451
449 2 453 456
450 3 451 452
451 3 453 454
452 4 450 455
453 1 457 462
454 2 457 458
455 2 460 462
456 3 458 459
457 3 460 461
458 1 462 468
459 2 462 463
460 2 465 468
461 3 463 464
462 3 465 466
463 4 462 467
464 1 468 474
465 2 468 469
466 2 471 474
467 3 469 470
468 3 471 472
469 4 468 473
470 1 474 480
471 2 474 475
472 2 477 480
473 3 475 476
474 3 477 478
475 4 474 479
476 1 480 486
477 2 480 481
478 2 483 486
479 3 481 482
480 3 483 484
481 4 480 485
482 1 486 492
483 2 486 487
484 2 489 492
485 3 487 488
486 3 489 490
487 4 486 491
488 1 492 498
489 2 492 493
490 2 495 498
491 3 493 494
492 3 495 496
493 4 492 497
494 1 498 504
495 2 498 499
496 2 501 504
497 3 499 500
498 3 501 502
499 4 498 503
500 1 504 510
501 2 504 505
502 2 507 510
503 3 505 506
504 3 507 508
505 4 504 509
506 1 510 516
507 2 510 511
508 2 513 516
509 3 511 512
510 3 513 514
511 4 510 515
512 1 516 522
513 2 516 517
514 2 519 522
515 3 517 518
516 3 519 520
517 4 516 521
518 1 522 528
519 2 522 523
520 2 525 528
521 3 523 524
522 3 525 526
523 4 522 527
524 1 528 534
525 2 528 529
526 2 531 534
527 3 529 530
528 3 531 532
529 4 528 533
530 1 534 540
531 2 534 535
532 2 537 540
533 3 535 536
534 3 537 538
535 4 534 539
536 1 540 546
537 2 540 541
538 2 543 546
539 3 541 542
540 3 543 544
541 4 540 545
542 1 546 552
543 2 546 547
544 2 549 552
545 3 547 548
546 3 549 550
547 4 546 551
548 1 552 558
549 2 552 553
550 2 555 558
551 3 553 554
552 3 555 556
553 4 552 557
554 1 558 564
555 2 558 559
556 2 561 564
557 3 559 560
558 3 561 562
559 4 558 563
560 1 564 570
561 2 564 565
562 2 567 570
563 3 565 566
564 3 567 568
565 4 564 569
566 1 571 576
567 2 571 572
568 2 574 576
569 3 572 573
570 3 574 575
571 1 576 582
572 2 576 577
573 2 579 582
574 3 577 578
575 3 579 580
576 4 576 581
577 1 582 588
578 2 582 583
579 2 585 588
580 3 583 584
581 3 585 586
582 4 582 587
583 1 588 594
584 2 588 589
585 2 591 594
586 3 589 590
587 3 591 592
588 4 588 593
589 1 594 600
590 2 594 595
591 2 597 600
592 3 595 596
593 3 597 598
594 4 594 599
595 1 600 606
596 2 600 601
597 2 603 606
598 3 601 602
599 3 603 604
600 4 600 605
601 1 606 612
602 2 606 607
603 2 609 612
604 3 607 608
605 3 609 610
606 4 606 611
607 1 612 618
608 2 612 613
609 2 615 618
610 3 613 614
611 3 615 616
612 4 612 617
613 1 618 624
614 2 618 619
615 2 621 624
616 3 619 620
617 3 621 622
618 4 618 623
619 1 624 630
620 2 624 625
621 2 627 630
622 3 625 626
623 3 627 628
624 4 624 629
625 1 630 636
626 2 630 631
627 2 633 636
628 3 631 632
629 3 633 634
630 4 630 635
631 1 636 642
632 2 636 637
633 2 639 642
634 3 637 638
635 3 639 640
636 4 636 641
637 1 642 648
638 2 642 643
639 2 645 648
640 3 643 644
641 3 645 646
642 4 642 647
643 1 648 654
644 2 648 649
645 2 651 654
646 3 649 650
647 3 651 652
648 4 648 653
649 1 654 660
650 2 654 655
651 2 657 660
652 3 655 656
653 3 657 658
654 4 654 659
655 1 660 666
656 2 660 661
657 2 663 666
658 3 661 662
659 3 663 664
660 4 660 665
661 1 666 672
662 2 666 667
663 2 669 672
664 3 667 668
665 3 669 670
666 4 666 671
667 1 672 678
668 2 672 673
669 2 675 678
670 3 673 674
671 3 675 676
672 4 672 677
673 1 678 684
674 2 678 679
675 2 681 684
676 3 679 680
677 3 681 682
678 4 678 683
679 1 685 690
680 2 685 686
681 2 688 690
682 3 686 687
683 3 688 689
684 1 690 696
685 2 690 691
686 2 693 696
687 3 691 692
688 3 693 694
689 4 690 695
690 1 696 702
691 2 696 697
692 2 699 702
693 3 697 698
694 3 699 700
695 4 696 701
696 1 702 708
697 2 702 703
698 2 705 708
699 3 703 704
700 3 705 706
701 4 702 707
702 1 708 714
703 2 708 709
704 2 711 714
705 3 709 710
706 3 711 712
707 4 708 713
708 1 714 720
709 2 714 715
710 2 717 720
711 3 715 716
712 3 717 718
713 4 714 719
714 1 720 726
715 2 720 721
716 2 723 726
717 3 721 722
718 3 723 724
719 4 720 725
720 1 726 732
721 2 726 727
722 2 729 732
723 3 727 728
724 3 729 730
725 4 726 731
726 1 732 738
727 2 732 733
728 2 735 738
729 3 733 734
730 3 735 736
731 4 732 737
732 1 738 744
733 2 738 739
734 2 741 744
735 3 739 740
736 3 741 742
737 4 738 743
738 1 744 750
739 2 744 745
740 2 747 750
741 3 745 746
742 3 747 748
743 4 744 749
744 1 750 756
745 2 750 751
746 2 753 756
747 3 751 752
748 3 753 754
749 4 750 755
750 1 756 762
751 2 756 757
752 2 759 762
753 3 757 758
754 3 759 760
755 4 756 761
756 1 762 768
757 2 762 763
758 2 765 768
759 3 763 764
760 3 765 766
761 4 762 767
762 1 768 774
763 2 768 769
764 2 771 774
765 3 769 770
766 3 771 772
767 4 768 773
768 1 774 780
769 2 774 775
770 2 777 780
771 3 775 776
772 3 777 778
773 4 774 779
774 1 780 786
775 2 780 781
776 2 783 786
777 3 781 782
778 3 783 784
779 4 780 785
780 1 786 792
781 2 786 787
782 2 789 792
783 3 787 788
784 3 789 790
785 4 786 791
786 1 792 798
787 2 792 793
788 2 795 798
789 3 793 794
790 3 795 796
791 4 792 797
792 1 799 804
793 2 799 800
794 2 802 804
795 3 800 801
796 3 802 803
797 1 804 810
798 2 804 805
799 2 807 810
800 3 805 806
801 3 807 808
802 4 804 809
803 1 810 816
804 2 810 811
805 2 813 816
806 3 811 812
807 3 813 814
808 4 810 815
809 1 816 822
810 2 816 817
811 2 819 822
812 3 817 818
813 3 819 820
814 4 816 821
815 1 822 828
816 2 822 823
817 2 825 828
818 3 823 824
819 3 825 826
820 4 822 827
821 1 828 834
822 2 828 829
823 2 831 834
824 3 829 830
825 3 831 832
826 4 828 833
827 1 834 840
828 2 834 835
829 2 837 840
830 3 835 836
831 3 837 838
832 4 834 839
833 1 840 846
834 2 840 841
835 2 843 846
836 3 841 842
837 3 843 844
838 4 840 845
839 1 846 852
840 2 846 847
841 2 849 852
842 3 847 848
843 3 849 850
844 4 846 851
845 1 852 858
846 2 852 853
847 2 855 858
848 3 853 854
849 3 855 856
850 4 852 857
851 1 858 864
852 2 858 859
853 2 861 864
854 3 859 860
855 3 861 862
856 4 858 863
857 1 864 870
858 2 864 865
859 2 867 870
860 3 865 866
861 3 867 868
862 4 864 869
863 1 870 876
864 2 870 871
865 2 873 876
866 3 871 872
867 3 873 874
868 4 870 875
869 1 876 882
870 2 876 877
871 2 879 882
872 3 877 878
873 3 879 880
874 4 876 881
875 1 882 888
876 2 882 883
877 2 885 888
878 3 883 884
879 3 885 886
880 4 882 887
881 1 888 894
882 2 888 889
883 2 891 894
884 3 889 890
885 3 891 892
886 4 888 893
887 1 894 900
888 2 894 895
889 2 897 900
890 3 895 896
891 3 897 898
892 4 894 899
893 1 900 906
894 2 900 901
895 2 903 906
896 3 901 902
897 3 903 904
898 4 900 905
899 1 906 912
900 2 906 907
901 2 909 912
902 3 907 908
903 3 909 910
904 4 906 911
905 1 913 918
906 2 913 914
907 2 916 918
908 3 914 915
909 3 916 917
910 1 918 924
911 2 918 919
912 2 921 924
913 3 919 920
914 3 921 922
915 4 918 923
916 1 924 930
917 2 924 925
918 2 927 930
919 3 925 926
920 3 927 928
921 4 924 929
922 1 930 936
923 2 930 931
924 2 933 936
925 3 931 932
926 3 933 934
927 4 930 935
928 1 936 942
929 2 936 937
930 2 939 942
931 3 937 938
932 3 939 940
933 4 936 941
934 1 942 948
935 2 942 943
936 2 945 948
937 3 943 944
938 3 945 946
939 4 942 947
940 1 948 954
941 2 948 949
942 2 951 954
943 3 949 950
944 3 951 952
945 4 948 953
946 1 954 960
947 2 954 955
948 2 957 960
949 3 955 956
950 3 957 958
951 4 954 959
952 1 960 966
953 2 960 961
954 2 963 966
955 3 961 962
956 3 963 964
957 4 960 965
958 1 966 972
959 2 966 967
960 2 969 972
961 3 967 968
962 3 969 970
963 4 966 971
964 1 972 978
965 2 972 973
966 2 975 978
967 3 973 974
968 3 975 976
969 4 972 977
970 1 978 984
971 2 978 979
972 2 981 984
973 3 979 980
974 3 981 982
975 4 978 983
976 1 984 990
977 2 984 985
978 2 987 990
979 3 985 986
980 3 987 988
981 4 984 989
982 1 990 996
983 2 990 991
984 2 993 996
985 3 991 992
986 3 993 994
987 4 990 995
988 1 996 1002
989 2 996 997
990 2 999 1002
991 3 997 998
992 3 999 1000
993 4 996 1001
994 1 1002 1008
995 2 1002 1003
996 2 1005 1008
997 3 1003 1004
998 3 1005 1006
999 4 1002 1007
1000 1 1008 1014
1001 2 1008 1009
1002 2 1011 1014
1003 3 1009 1010
1004 3 1011 1012
1005 4 1008 1013
1006 1 1014 1020
1007 2 1014 1015
1008 2 1017 1020
1009 3 1015 1016
1010 3 1017 1018
1011 4 1014 1019
1012 1 1020 1026
1013 2 1020 1021
1014 2 1023 1026
1015 3 1021 1022
1016 3 1023 1024
1017 4 1020 1025
1018 1 1027 1032
1019 2 1027 1028
1020 2 1030 1032
1021 3 1028 1029
1022 3 1030 1031
1023 1 1032 1038
1024 2 1032 1033
1025 2 1035 1038
1026 3 1033 1034
1027 3 1035 1036
1028 4 1032 1037
1029 1 1038 1044
1030 2 1038 1039
1031 2 1041 1044
1032 3 1039 1040
1033 3 1041 1042
1034 4 1038 1043
1035 1 1044 1050
1036 2 1044 1045
1037 2 1047 1050
1038 3 1045 1046
1039 3 1047 1048
1040 4 1044 1049
1041 1 1050 1056
1042 2 1050 1051
1043 2 1053 1056
1044 3 1051 1052
1045 3 1053 1054
1046 4 1050 1055
1047 1 1056 1062
1048 2 1056 1057
1049 2 1059 1062
1050 3 1057 1058
1051 3 1059 1060
1052 4 1056 1061
1053 1 1062 1068
1054 2 1062 1063
1055 2 1065 1068
1056 3 1063 1064
1057 3 1065 1066
1058 4 1062 1067
1059 1 1068 1074
1060 2 1068 1069
1061 2 1071 1074
1062 3 1069 1070
1063 3 1071 1072
1064 4 1068 1073
1065 1 1074 1080
1066 2 1074 1075
1067 2 1077 1080
1068 3 1075 1076
1069 3 1077 1078
1070 4 1074 1079
1071 1 1080 1086
1072 2 1080 1081
1073 2 1083 1086
1074 3 1081 1082
1075 3 1083 1084
1076 4 1080 1085
1077 1 1086 1092
1078 2 1086 1087
1079 2 1089 1092
1080 3 1087 1088
1081 3 1089 1090
1082 4 1086 1091
1083 1 1092 1098
1084 2 1092 1093
1085 2 1095 1098
1086 3 1093 1094
1087 3 1095 1096
1088 4 1092 1097
1089 1 1098 1104
1090 2 1098 1099
1091 2 1101 1104
1092 3 1099 1100
1093 3 1101 1102
1094 4 1098 1103
1095 1 1104 1110
1096 2 1104 1105
1097 2 1107 1110
1098 3 1105 1106
1099 3 1107 1108
1100 4 1104 1109
1101 1 1110 1116
1102 2 1110 1111
1103 2 1113 1116
1104 3 1111 1112
1105 3 1113 1114
1106 4 1110 1115
1107 1 1116 1122
1108 2 1116 1117
1109 2 1119 1122
1110 3 1117 1118
1111 3 1119 1120
1112 4 1116 1121
1113 1 1122 1128
1114 2 1122 1123
1115 2 1125 1128
1116 3 1123 1124
1117 3 1125 1126
1118 4 1122 1127
1119 1 1128 1134
1120 2 1128 1129
1121 2 1131 1134
1122 3 1129 1130
1123 3 1131 1132
1124 4 1128 1133
1125 1 1134 1140
1126 2 1134 1135
1127 2 1137 1140
1128 3 1135 1136
1129 3 1137 1138
1130 4 1134 1139
1131 1 1141 1146
1132 2 1141 1142
1133 2 1144 1146
1134 3 1142 1143
1135 3 1144 1145
1136 1 1146 1152
1137 2 1146 1147
1138 2 1149 1152
1139 3 1147 1148
1140 3 1149 1150
1141 4 1146 1151
1142 1 1152 1158
1143 2 1152 1153
1144 2 1155 1158
1145 3 1153 1154
1146 3 1155 1156
1147 4 1152 1157
1148 1 1158 1164
1149 2 1158 1159
1150 2 1161 1164
1151 3 1159 1160
1152 3 1161 1162
1153 4 1158 1163
1154 1 1164 1170
1155 2 1164 1165
1156 2 1167 1170
1157 3 1165 1166
1158 3 1167 1168
1159 4 1164 1169
1160 1 1170 1176
1161 2 1170 1171
1162 2 1173 1176
1163 3 1171 1172
1164 3 1173 1174
1165 4 1170 1175
1166 1 1176 1182
1167 2 1176 1177
1168 2 1179 1182
1169 3 1177 1178
1170 3 1179 1180
1171 4 1176 1181
1172 1 1182 1188
1173 2 1182 1183
1174 2 1185 1188
1175 3 1183 1184
1176 3 1185 1186
1177 4 1182 1187
1178 1 1188 1194
1179 2 1188 1189
1180 2 1191 1194
1181 3 1189 1190
1182 3 1191 1192
1183 4 1188 1193
1184 1 1194 1200
1185 2 1194 1195
1186 2 1197 1200
1187 3 1195 1196
1188 3 1197 1198
1189 4 1194 1199
1190 1 1200 1206
1191 2 1200 1201
1192 2 1203 1206
1193 3 1201 1202
1194 3 1203 1204
1195 4 1200 1205
1196 1 1206 1212
1197 2 1206 1207
1198 2 1209 1212
1199 3 1207 1208
1200 3 1209 1210
1201 4 1206 1211
1202 1 1212 1218
1203 2 1212 1213
1204 2 1215 1218
1205 3 1213 1214
1206 3 1215 1216
1207 4 1212 1217
1208 1 1218 1224
1209 2 1218 1219
1210 2 1221 1224
1211 3 1219 1220
1212 3 1221 1222
1213 4 1218 1223
1214 1 1224 1230
1215 2 1224 1225
1216 2 1227 1230
1217 3 1225 1226
1218 3 1227 1228
1219 4 1224 1229
1220 1 1230 1236
1221 2 1230 1231
1222 2 1233 1236
1223 3 1231 1232
1224 3 1233 1234
1225 4 1230 1235
1226 1 1236 1242
1227 2 1236 1237
1228 2 1239 1242
1229 3 1237 1238
1230 3 1239 1240
1231 4 1236 1241
1232 1 1242 1248
1233 2 1242 1243
1234 2 1245 1248
1235 3 1243 1244
1236 3 1245 1246
1237 4 1242 1247
1238 1 1248 1254
1239 2 1248 1249
1240 2 1251 1254
1241 3 1249 1250
1242 3 1251 1252
1243 4 1248 1253
1244 1 1255 1260
1245 2 1255 1256
1246 2 1258 1260
1247 3 1256 1257
1248 3 1258 1259
1249 1 1260 1266
1250 2 1260 1261
1251 2 1263 1266
1252 3 1261 1262
1253 3 1263 1264
1254 4 1260 1265
1255 1 1266 1272
1256 2 1266 1267
1257 2 1269 1272
1258 3 1267 1268
1259 3 1269 1270
1260 4 1266 1271
1261 1 1272 1278
1262 2 1272 1273
1263 2 1275 1278
1264 3 1273 1274
1265 3 1275 1276
1266 4 1272 1277
1267 1 1278 1284
1268 2 1278 1279
1269 2 1281 1284
1270 3 1279 1280
1271 3 1281 1282
1272 4 1278 1283
1273 1 1284 1290
1274 2 1284 1285
1275 2 1287 1290
1276 3 1285 1286
1277 3 1287 1288
1278 4 1284 1289
1279 1 1290 1296
1280 2 1290 1291
1281 2 1293 1296
1282 3 1291 1292
1283 3 1293 1294
1284 4 1290 1295
1285 1 1296 1302
1286 2 1296 1297
1287 2 1299 1302
1288 3 1297 1298
1289 3 1299 1300
1290 4 1296 1301
1291 1 1302 1308
1292 2 1302 1303
1293 2 1305 1308
1294 3 1303 1304
1295 3 1305 1306
1296 4 1302 1307
1297 1 1308 1314
1298 2 1308 1309
1299 2 1311 1314
1300 3 1309 1310
1301 3 1311 1312
1302 4 1308 1313
1303 1 1314 1320
1304 2 1314 1315
1305 2 1317 1320
1306 3 1315 1316
1307 3 1317 1318
1308 4 1314 1319
1309 1 1320 1326
1310 2 1320 1321
1311 2 1323 1326
1312 3 1321 1322
1313 3 1323 1324
1314 4 1320 1325
1315 1 1326 1332
1316 2 1326 1327
1317 2 1329 1332
1318 3 1327 1328
1319 3 1329 1330
1320 4 1326 1331
1321 1 1332 1338
1322 2 1332 1333
1323 2 1335 1338
1324 3 1333 1334
1325 3 1335 1336
1326 4 1332 1337
1327 1 1338 1344
1328 2 1338 1339
1329 2 1341 1344
1330 3 1339 1340
1331 3 1341 1342
1332 4 1338 1343
1333 1 1344 1350
1334 2 1344 1345
1335 2 1347 1350
1336 3 1345 1346
1337 3 1347 1348
1338 4 1344 1349
1339 1 1350 1356
1340 2 1350 1351
1341 2 1353 1356
1342 3 1351 1352
1343 3 1353 1354
1344 4 1350 1355
1345 1 1356 1362
1346 2 1356 1357
1347 2 1359 1362
1348 3 1357 1358
1349 3 1359 1360
1350 4 1356 1361
1351 1 1362 1368
1352 2 1362 1363
1353 2 1365 1368
1354 3 1363 1364
1355 3 1365 1366
1356 4 1362 1367
1357 1 1369 1374
1358 2 1369 1370
1359 2 1372 1374
1360 3 1370 1371
1361 3 1372 1373
1362 1 1374 1380
1363 2 1374 1375
1364 2 1377 1380
1365 3 1375 1376
1366 3 1377 1378
1367 4 1374 1379
1368 1 1380 1386
1369 2 1380 1381
1370 2 1383 1386
1371 3 1381 1382
1372 3 1383 1384
1373 4 1380 1385
1374 1 1386 1392
1375 2 1386 1387
1376 2 1389 1392
1377 3 1387 1388
1378 3 1389 1390
1379 4 1386 1391
1380 1 1392 1398
1381 2 1392 1393
1382 2 1395 1398
1383 3 1393 1394
1384 3 1395 1396
1385 4 1392 1397
1386 1 1398 1404
1387 2 1398 1399
1388 2 1401 1404
1389 3 1399 1400
1390 3 1401 1402
1391 4 1398 1403
1392 1 1404 1410
1393 2 1404 1405
1394 2 1407 1410
1395 3 1405 1406
1396 3 1407 1408
1397 4 1404 1409
1398 1 1410 1416
1399 2 1410 1411
1400 2 1413 1416
1401 3 1411 1412
1402 3 1413 1414
1403 4 1410 1415
1404 1 1416 1422
1405 2 1416 1417
1406 2 1419 1422
1407 3 1417 1418
1408 3 1419 1420
1409 4 1416 1421
1410 1 1422 1428
1411 2 1422 1423
1412 2 1425 1428
1413 3 1423 1424
1414 3 1425 1426
1415 4 1422 1427
1416 1 1428 1434
1417 2 1428 1429
1418 2 1431 1434
1419 3 1429 1430
1420 3 1431 1432
1421 4 1428 1433
1422 1 1434 1440
1423 2 1434 1435
1424 2 1437 1440
1425 3 1435 1436
1426 3 1437 1438
1427 4 1434 1439
1428 1 1440 1446
1429 2 1440 1441
1430 2 1443 1446
1431 3 1441 1442
1432 3 1443 1444
1433 4 1440 1445
1434 1 1446 1452
1435 2 1446 1447
1436 2 1449 1452
1437 3 1447 1448
1438 3 1449 1450
1439 4 1446 1451
1440 1 1452 1458
1441 2 1452 1453
1442 2 1455 1458
1443 3 1453 1454
1444 3 1455 1456
1445 4 1452 1457
1446 1 1458 1464
1447 2 1458 1459
1448 2 1461 1464
1449 3 1459 1460
1450 3 1461 1462
1451 4 1458 1463
1452 1 1464 1470
1453 2 1464 1465
1454 2 1467 1470
1455 3 1465 1466
1456 3 1467 1468
1457 4 1464 1469
1458 1 1470 1476
1459 2 1470 1471
1460 2 1473 1476
1461 3 1471 1472
1462 3 1473 1474
1463 4 1470 1475
1464 1 1476 1482
1465 2 1476 1477
1466 2 1479 1482
1467 3 1477 1478
1468 3 1479 1480
1469 4 1476 1481
1470 1 1483 1488
1471 2 1483 1484
1472 2 1486 1488
1473 3 1484 1485
1474 3 1486 1487
1475 1 1488 1494
1476 2 1488 1489
1477 2 1491 1494
1478 3 1489 1490
1479 3 1491 1492
1480 4 1488 1493
1481 1 1494 1500
1482 2 1494 1495
1483 2 1497 1500
1484 3 1495 1496
1485 3 1497 1498
1486 4 1494 1499
1487 1 1500 1506
1488 2 1500 1501
1489 2 1503 1506
1490 3 1501 1502
1491 3 1503 1504
1492 4 1500 1505
1493 1 1506 1512
1494 2 1506 1507
1495 2 1509 1512
1496 3 1507 1508
1497 3 1509 1510
1498 4 1506 1511
1499 1 1512 1518
1500 2 1512 1513
1501 2 1515 1518
1502 3 1513 1514
1503 3 1515 1516
1504 4 1512 1517
1505 1 1518 1524
1506 2 1518 1519
1507 2 1521 1524
1508 3 1519 1520
1509 3 1521 1522
1510 4 1518 1523
1511 1 1524 1530
1512 2 1524 1525
1513 2 1527 1530
1514 3 1525 1526
1515 3 1527 1528
1516 4 1524 1529
1517 1 1530 1536
1518 2 1530 1531
1519 2 1533 1536
1520 3 1531 1532
1521 3 1533 1534
1522 4 1530 1535
1523 1 1536 1542
1524 2 1536 1537
1525 2 1539 1542
1526 3 1537 1538
1527 3 1539 1540
1528 4 1536 1541
1529 1 1542 1548
1530 2 1542 1543
1531 2 1545 1548
1532 3 1543 1544
1533 3 1545 1546
1534 4 1542 1547
1535 1 1548 1554
1536 2 1548 1549
1537 2 1551 1554
1538 3 1549 1550
1539 3 1551 1552
1540 4 1548 1553
1541 1 1554 1560
1542 2 1554 1555
1543 2 1557 1560
1544 3 1555 1556
1545 3 1557 1558
1546 4 1554 1559
1547 1 1560 1566
1548 2 1560 1561
1549 2 1563 1566
1550 3 1561 1562
1551 3 1563 1564
1552 4 1560 1565
1553 1 1566 1572
1554 2 1566 1567
1555 2 1569 1572
1556 3 1567 1568
1557 3 1569 1570
1558 4 1566 1571
1559 1 1572 1578
1560 2 1572 1573
1561 2 1575 1578
1562 3 1573 1574
1563 3 1575 1576
1564 4 1572 1577
1565 1 1578 1584
1566 2 1578 1579
1567 2 1581 1584
1568 3 1579 1580
1569 3 1581 1582
1570 4 1578 1583
1571 1 1584 1590
1572 2 1584 1585
1573 2 1587 1590
1574 3 1585 1586
1575 3 1587 1588
1576 4 1584 1589
1577 1 1590 1596
1578 2 1590 1591
1579 2 1593 1596
1580 3 1591 1592
1581 3 1593 1594
1582 4 1590 1595
1583 1 1597 1602
1584 2 1597 1598
1585 2 1600 1602
1586 3 1598 1599
1587 3 1600 1601
1588 1 1602 1608
1589 2 1602 1603
1590 2 1605 1608
1591 3 1603 1604
1592 3 1605 1606
1593 4 1602 1607
1594 1 1608 1614
1595 2 1608 1609
1596 2 1611 1614
1597 3 1609 1610
1598 3 1611 1612
1599 4 1608 1613
1600 1 1614 1620
1601 2 1614 1615
1602 2 1617 1620
1603 3 1615 1616
1604 3 1617 1618
1605 4 1614 1619
1606 1 1620 1626
1607 2 1620 1621
1608 2 1623 1626
1609 3 1621 1622
1610 3 1623 1624
1611 4 1620 1625
1612 1 1626 1632
1613 2 1626 1627
1614 2 1629 1632
1615 3 1627 1628
1616 3 1629 1630
1617 4 1626 1631
1618 1 1632 1638
1619 2 1632 1633
1620 2 1635 1638
1621 3 1633 1634
1622 3 1635 1636
1623 4 1632 1637
1624 1 1638 1644
1625 2 1638 1639
1626 2 1641 1644
1627 3 1639 1640
1628 3 1641 1642
1629 4 1638 1643
1630 1 1644 1650
1631 2 1644 1645
1632 2 1647 1650
1633 3 1645 1646
1634 3 1647 1648
1635 4 1644 1649
1636 1 1650 1656
1637 2 1650 1651
1638 2 1653 1656
1639 3 1651 1652
1640 3 1653 1654
1641 4 1650 1655
1642 1 1656 1662
1643 2 1656 1657
1644 2 1659 1662
1645 3 1657 1658
1646 3 1659 1660
1647 4 1656 1661
1648 1 1662 1668
1649 2 1662 1663
1650 2 1665 1668
1651 3 1663 1664
1652 3 1665 1666
1653 4 1662 1667
1654 1 1668 1674
1655 2 1668 1669
1656 2 1671 1674
1657 3 1669 1670
1658 3 1671 1672
1659 4 1668 1673
1660 1 1674 1680
1661 2 1674 1675
1662 2 1677 1680
1663 3 1675 1676
1664 3 1677 1678
1665 4 1674 1679
1666 1 1680 1686
1667 2 1680 1681
1668 2 1683 1686
1669 3 1681 1682
1670 3 1683 1684
1671 4 1680 1685
1672 1 1686 1692
1673 2 1686 1687
1674 2 1689 1692
1675 3 1687 1688
1676 3 1689 1690
1677 4 1686 1691
1678 1 1692 1698
1679 2 1692 1693
1680 2 1695 1698
1681 3 1693 1694
1682 3 1695 1696
1683 4 1692 1697
1684 1 1698 1704
1685 2 1698 1699
1686 2 1701 1704
1687 3 1699 1700
1688 3 1701 1702
1689 4 1698 1703
1690 1 1704 1710
1691 2 1704 1705
1692 2 1707 1710
1693 3 1705 1706
1694 3 1707 1708
1695 4 1704 1709
1696 1 1711 1716
1697 2 1711 1712
1698 2 1714 1716
1699 3 1712 1713
1700 3 1714 1715
1701 1 1716 1722
1702 2 1716 1717
1703 2 1719 1722
1704 3 1717 1718
1705 3 1719 1720
1706 4 1716 1721
1707 1 1722 1728
1708 2 1722 1723
1709 2 1725 1728
1710 3 1723 1724
1711 3 1725 1726
1712 4 1722 1727
1713 1 1728 1734
1714 2 1728 1729
1715 2 1731 1734
1716 3 1729 1730
1717 3 1731 1732
1718 4 1728 1733
1719 1 1734 1740
1720 2 1734 1735
1721 2 1737 1740
1722 3 1735 1736
1723 3 1737 1738
1724 4 1734 1739
1725 1 1740 1746
1726 2 1740 1741
1727 2 1743 1746
1728 3 1741 1742
1729 3 1743 1744
1730 4 1740 1745
1731 1 1746 1752
1732 2 1746 1747
1733 2 1749 1752
1734 3 1747 1748
1735 3 1749 1750
1736 4 1746 1751
1737 1 1752 1758
1738 2 1752 1753
1739 2 1755 1758
1740 3 1753 1754
1741 3 1755 1756
1742 4 1752 1757
1743 1 1758 1764
1744 2 1758 1759
1745 2 1761 1764
1746 3 1759 1760
1747 3 1761 1762
1748 4 1758 1763
1749 1 1764 1770
1750 2 1764 1765
1751 2 1767 1770
1752 3 1765 1766
1753 3 1767 1768
1754 4 1764 1769
1755 1 1770 1776
1756 2 1770 1771
1757 2 1773 1776
1758 3 1771 1772
1759 3 1773 1774
1760 4 1770 1775
1761 1 1776 1782
1762 2 1776 1777
1763 2 1779 1782
1764 3 1777 1778
1765 3 1779 1780
1766 4 1776 1781
1767 1 1782 1788
1768 2 1782 1783
1769 2 1785 1788
1770 3 1783 1784
1771 3 1785 1786
1772 4 1782 1787
1773 1 1788 1794
1774 2 1788 1789
1775 2 1791 1794
1776 3 1789 1790
1777 3 1791 1792
1778 4 1788 1793
1779 1 1794 1800
1780 2 1794 1795
1781 2 1797 1800
1782 3 1795 1796
1783 3 1797 1798
1784 4 1794 1799
1785 1 1800 1806
1786 2 1800 1801
1787 2 1803 1806
1788 3 1801 1802
1789 3 1803 1804
1790 4 1800 1805
1791 1 1806 1812
1792 2 1806 1807
1793 2 1809 1812
1794 3 1807 1808
1795 3 1809 1810
1796 4 1806 1811
1797 1 1812 1818
1798 2 1812 1813
1799 2 1815 1818
1800 3 1813 1814
1801 3 1815 1816
1802 4 1812 1817
1803 1 1818 1824
1804 2 1818 1819
1805 2 1821 1824
1806 3 1819 1820
1807 3 1821 1822
1808 4 1818 1823
1809 1 1825 1830
1810 2 1825 1826
1811 2 1828 1830
1812 3 1826 1827
1813 3 1828 1829
1814 1 1830 1836
1815 2 1830 1831
1816 2 1833 1836
1817 3 1831 1832
1818 3 1833 1834
1819 4 1830 1835
1820 1 1836 1842
1821 2 1836 1837
1822 2 1839 1842
1823 3 1837 1838
1824 3 1839 1840
1825 4 1836 1841
1826 1 1842 1848
1827 2 1842 1843
1828 2 1845 1848
1829 3 1843 1844
1830 3 1845 1846
1831 4 1842 1847
1832 1 1848 1854
1833 2 1848 1849
1834 2 1851 1854
1835 3 1849 1850
1836 3 1851 1852
1837 4 1848 1853
1838 1 1854 1860
1839 2 1854 1855
1840 2 1857 1860
1841 3 1855 1856
1842 3 1857 1858
1843 4 1854 1859
1844 1 1860 1866
1845 2 1860 1861
1846 2 1863 1866
1847 3 1861 1862
1848 3 1863 1864
1849 4 1860 1865
1850 1 1866 1872
1851 2 1866 1867
1852 2 1869 1872
1853 3 1867 1868
1854 3 1869 1870
1855 4 1866 1871
1856 1 1872 1878
1857 2 1872 1873
1858 2 1875 1878
1859 3 1873 1874
1860 3 1875 1876
1861 4 1872 1877
1862 1 1878 1884
1863 2 1878 1879
1864 2 1881 1884
1865 3 1879 1880
1866 3 1881 1882
1867 4 1878 1883
1868 1 1884 1890
1869 2 1884 1885
1870 2 1887 1890
1871 3 1885 1886
1872 3 1887 1888
1873 4 1884 1889
1874 1 1890 1896
1875 2 1890 1891
1876 2 1893 1896
1877 3 1891 1892
1878 3 1893 1894
1879 4 1890 1895
1880 1 1896 1902
1881 2 1896 1897
1882 2 1899 1902
1883 3 1897 1898
1884 3 1899 1900
1885 4 1896 1901
1886 1 1902 1908
1887 2 1902 1903
1888 2 1905 1908
1889 3 1903 1904
1890 3 1905 1906
1891 4 1902 1907
1892 1 1908 1914
1893 2 1908 1909
1894 2 1911 1914
1895 3 1909 1910
1896 3 1911 1912
1897 4 1908 1913
1898 1 1914 1920
1899 2 1914 1915
1900 2 1917 1920
1901 3 1915 1916
1902 3 1917 1918
1903 4 1914 1919
1904 1 1920 1926
1905 2 1920 1921
1906 2 1923 1926
1907 3 1921 1922
1908 3 1923 1924
1909 4 1920 1925
1910 1 1926 1932
1911 2 1926 1927
1912 2 1929 1932
1913 3 1927 1928
1914 3 1929 1930
1915 4 1926 1931
1916 1 1932 1938
1917 2 1932 1933
1918 2 1935 1938
1919 3 1933 1934
1920 3 1935 1936
1921 4 1932 1937
1922 1 1939 1944
1923 2 1939 1940
1924 2 1942 1944
1925 3 1940 1941
1926 3 1942 1943
1927 1 1944 1950
1928 2 1944 1945
1929 2 1947 1950
1930 3 1945 1946
1931 3 1947 1948
1932 4 1944 1949
1933 1 1950 1956
1934 2 1950 1951
1935 2 1953 1956
1936 3 1951 1952
1937 3 1953 1954
1938 4 1950 1955
1939 1 1956 1962
1940 2 1956 1957
1941 2 1959 1962
1942 3 1957 1958
1943 3 1959 1960
1944 4 1956 1961
1945 1 1962 1968
1946 2 1962 1963
1947 2 1965 1968
1948 3 1963 1964
1949 3 1965 1966
1950 4 1962 1967
1951 1 1968 1974
1952 2 1968 1969
1953 2 1971 1974
1954 3 1969 1970
1955 3 1971 1972
1956 4 1968 1973
1957 1 1974 1980
1958 2 1974 1975
1959 2 1977 1980
1960 3 1975 1976
1961 3 1977 1978
1962 4 1974 1979
1963 1 1980 1986
1964 2 1980 1981
1965 2 1983 1986
1966 3 1981 1982
1967 3 1983 1984
1968 4 1980 1985
1969 1 1986 1992
1970 2 1986 1987
1971 2 1989 1992
1972 3 1987 1988
1973 3 1989 1990
1974 4 1986 1991
1975 1 1992 1998
1976 2 1992 1993
1977 2 1995 1998
1978 3 1993 1994
1979 3 1995 1996
1980 4 1992 1997
1981 1 1998 2004
1982 2 1998 1999
1983 2 2001 2004
1984 3 1999 2000
1985 3 2001 2002
1986 4 1998 2003
1987 1 2004 2010
1988 2 2004 2005
1989 2 2007 2010
1990 3 2005 2006
1991 3 2007 2008
1992 4 2004 2009
1993 1 2010 2016
1994 2 2010 2011
1995 2 2013 2016
1996 3 2011 2012
1997 3 2013 2014
1998 4 2010 2015
1999 1 2016 2022
2000 2 2016 2017
2001 2 2019 2022
2002 3 2017 2018
2003 3 2019 2020
2004 4 2016 2021
2005 1 2022 2028
2006 2 2022 2023
2007 2 2025 2028
2008 3 2023 2024
2009 3 2025 2026
2010 4 2022 2027
2011 1 2028 2034
2012 2 2028 2029
2013 2 2031 2034
2014 3 2029 2030
2015 3 2031 2032
2016 4 2028 2033
2017 1 2034 2040
2018 2 2034 2035
2019 2 2037 2040
2020 3 2035 2036
2021 3 2037 2038
2022 4 2034 2039
2023 1 2040 2046
2024 2 2040 2041
2025 2 2043 2046
2026 3 2041 2042
2027 3 2043 2044
2028 4 2040 2045
2029 1 2046 2052
2030 2 2046 2047
2031 2 2049 2052
2032 3 2047 2048
2033 3 2049 2050
2034 4 2046 2051
2035 1 2053 2058
2036 2 2053 2054
2037 2 2056 2058
2038 3 2054 2055
2039 3 2056 2057
2040 1 2058 2064
2041 2 2058 2059
2042 2 2061 2064
2043 3 2059 2060
2044 3 2061 2062
2045 4 2058 2063
2046 1 2064 2070
2047 2 2064 2065
2048 2 2067 2070
2049 3 2065 2066
2050 3 2067 2068
2051 4 2064 2069
2052 1 2070 2076
2053 2 2070 2071
2054 2 2073 2076
2055 3 2071 2072
2056 3 2073 2074
2057 4 2070 2075
2058 1 2076 2082
2059 2 2076 2077
2060 2 2079 2082
2061 3 2077 2078
2062 3 2079 2080
2063 4 2076 2081
2064 1 2082 2088
2065 2 2082 2083
2066 2 2085 2088
2067 3 2083 2084
2068 3 2085 2086
2069 4 2082 2087
2070 1 2088 2094
2071 2 2088 2089
2072 2 2091 2094
2073 3 2089 2090
2074 3 2091 2092
2075 4 2088 2093
2076 1 2094 2100
2077 2 2094 2095
2078 2 2097 2100
2079 3 2095 2096
2080 3 2097 2098
2081 4 2094 2099
2082 1 2100 2106
2083 2 2100 2101
2084 2 2103 2106
2085 3 2101 2102
2086 3 2103 2104
2087 4 2100 2105
2088 1 2106 2112
2089 2 2106 2107
2090 2 2109 2112
2091 3 2107 2108
2092 3 2109 2110
2093 4 2106 2111
2094 1 2112 2118
2095 2 2112 2113
2096 2 2115 2118
2097 3 2113 2114
2098 3 2115 2116
2099 4 2112 2117
2100 1 2118 2124
2101 2 2118 2119
2102 2 2121 2124
2103 3 2119 2120
2104 3 2121 2122
2105 4 2118 2123
2106 1 2124 2130
2107 2 2124 2125
2108 2 2127 2130
2109 3 2125 2126
2110 3 2127 2128
2111 4 2124 2129
2112 1 2130 2136
2113 2 2130 2131
2114 2 2133 2136
2115 3 2131 2132
2116 3 2133 2134
2117 4 2130 2135
2118 1 2136 2142
2119 2 2136 2137
2120 2 2139 2142
2121 3 2137 2138
2122 3 2139 2140
2123 4 2136 2141
2124 1 2142 2148
2125 2 2142 2143
2126 2 2145 2148
2127 3 2143 2144
2128 3 2145 2146
2129 4 2142 2147
2130 1 2148 2154
2131 2 2148 2149
2132 2 2151 2154
2133 3 2149 2150
2134 3 2151 2152
2135 4 2148 2153
2136 1 2154 2160
2137 2 2154 2155
2138 2 2157 2160
2139 3 2155 2156
2140 3 2157 2158
2141 4 2154 2159
2142 1 2160 2166
2143 2 2160 2161
2144 2 2163 2166
2145 3 2161 2162
2146 3 2163 2164
2147 4 2160 2165
2148 1 2167 2172
2149 2 2167 2168
2150 2 2170 2172
2151 3 2168 2169
2152 3 2170 2171
2153 1 2172 2178
2154 2 2172 2173
2155 2 2175 2178
2156 3 2173 2174
2157 3 2175 2176
2158 4 2172 2177
2159 1 2178 2184
2160 2 2178 2179
2161 2 2181 2184
2162 3 2179 2180
2163 3 2181 2182
2164 4 2178 2183
2165 1 2184 2190
2166 2 2184 2185
2167 2 2187 2190
2168 3 2185 2186
2169 3 2187 2188
2170 4 2184 2189
2171 1 2190 2196
2172 2 2190 2191
2173 2 2193 2196
2174 3 2191 2192
2175 3 2193 2194
2176 4 2190 2195
2177 1 2196 2202
2178 2 2196 2197
2179 2 2199 2202
2180 3 2197 2198
2181 3 2199 2200
2182 4 2196 2201
2183 1 2202 2208
2184 2 2202 2203
2185 2 2205 2208
2186 3 2203 2204
2187 3 2205 2206
2188 4 2202 2207
2189 1 2208 2214
2190 2 2208 2209
2191 2 2211 2214
2192 3 2209 2210
2193 3 2211 2212
2194 4 2208 2213
2195 1 2214 2220
2196 2 2214 2215
2197 2 2217 2220
2198 3 2215 2216
2199 3 2217 2218
2200 4 2214 2219
2201 1 2220 2226
2202 2 2220 2221
2203 2 2223 2226
2204 3 2221 2222
2205 3 2223 2224
2206 4 2220 2225
2207 1 2226 2232
2208 2 2226 2227
2209 2 2229 2232
2210 3 2227 2228
2211 3 2229 2230
2212 4 2226 2231
2213 1 2232 2238
2214 2 2232 2233
2215 2 2235 2238
2216 3 2233 2234
2217 3 2235 2236
2218 4 2232 2237
2219 1 2238 2244
2220 2 2238 2239
2221 2 2241 2244
2222 3 2239 2240
2223 3 2241 2242
2224 4 2238 2243
2225 1 2244 2250
2226 2 2244 2245
2227 2 2247 2250
2228 3 2245 2246
2229 3 2247 2248
2230 4 2244 2249
2231 1 2250 2256
2232 2 2250 2251
2233 2 2253 2256
2234 3 2251 2252
2235 3 2253 2254
2236 4 2250 2255
2237 1 2256 2262
2238 2 2256 2257
2239 2 2259 2262
2240 3 2257 2258
2241 3 2259 2260
2242 4 2256 2261
2243 1 2262 2268
2244 2 2262 2263
2245 2 2265 2268
2246 3 2263 2264
2247 3 2265 2266
2248 4 2262 2267
2249 1 2268 2274
2250 2 2268 2269
2251 2 2271 2274
2252 3 2269 2270
2253 3 2271 2272
2254 4 2268 2273
2255 1 2274 2280
2256 2 2274 2275
2257 2 2277 2280
2258 3 2275 2276
2259 3 2277 2278
2260 4 2274 2279
2261 1 2281 2286
2262 2 2281 2282
2263 2 2284 2286
2264 3 2282 2283
2265 3 2284 2285
2266 1 2286 2292
2267 2 2286 2287
2268 2 2289 2292
2269 3 2287 2288
2270 3 2289 2290
2271 4 2286 2291
2272 1 2292 2298
2273 2 2292 2293
2274 2 2295 2298
2275 3 2293 2294
2276 3 2295 2296
2277 4 2292 2297
2278 1 2298 2304
2279 2 2298 2299
2280 2 2301 2304
2281 3 2299 2300
2282 3 2301 2302
2283 4 2298 2303
2284 1 2304 2310
2285 2 2304 2305
2286 2 2307 2310
2287 3 2305 2306
2288 3 2307 2308
2289 4 2304 2309
2290 1 2310 2316
2291 2 2310 2311
2292 2 2313 2316
2293 3 2311 2312
2294 3 2313 2314
2295 4 2310 2315
2296 1 2316 2322
2297 2 2316 2317
2298 2 2319 2322
2299 3 2317 2318
2300 3 2319 2320
2301 4 2316 2321
2302 1 2322 2328
2303 2 2322 2323
2304 2 2325 2328
2305 3 2323 2324
2306 3 2325 2326
2307 4 2322 2327
2308 1 2328 2334
2309 2 2328 2329
2310 2 2331 2334
2311 3 2329 2330
2312 3 2331 2332
2313 4 2328 2333
2314 1 2334 2340
2315 2 2334 2335
2316 2 2337 2340
2317 3 2335 2336
2318 3 2337 2338
2319 4 2334 2339
2320 1 2340 2346
2321 2 2340 2341
2322 2 2343 2346
2323 3 2341 2342
2324 3 2343 2344
2325 4 2340 2345
2326 1 2346 2352
2327 2 2346 2347
2328 2 2349 2352
2329 3 2347 2348
2330 3 2349 2350
2331 4 2346 2351
2332 1 2352 2358
2333 2 2352 2353
2334 2 2355 2358
2335 3 2353 2354
2336 3 2355 2356
2337 4 2352 2357
2338 1 2358 2364
2339 2 2358 2359
2340 2 2361 2364
2341 3 2359 2360
2342 3 2361 2362
2343 4 2358 2363
2344 1 2364 2370
2345 2 2364 2365
2346 2 2367 2370
2347 3 2365 2366
2348 3 2367 2368
2349 4 2364 2369
2350 1 2370 2376
2351 2 2370 2371
2352 2 2373 2376
2353 3 2371 2372
2354 3 2373 2374
2355 4 2370 2375
2356 1 2376 2382
2357 2 2376 2377
2358 2 2379 2382
2359 3 2377 2378
2360 3 2379 2380
2361 4 2376 2381
2362 1 2382 2388
2363 2 2382 2383
2364 2 2385 2388
2365 3 2383 2384
2366 3 2385 2386
2367 4 2382 2387
2368 1 2388 2394
2369 2 2388 2389
2370 2 2391 2394
2371 3 2389 2390
2372 3 2391 2392
2373 4 2388 2393
2374 1 2395 2400
2375 2 2395 2396
2376 2 2398 2400
2377 3 2396 2397
2378 3 2398 2399
2379 1 2400 2406
2380 2 2400 2401
2381 2 2403 2406
2382 3 2401 2402
2383 3 2403 2404
2384 4 2400 2405
2385 1 2406 2412
2386 2 2406 2407
2387 2 2409 2412
2388 3 2407 2408
2389 3 2409 2410
2390 4 2406 2411
2391 1 2412 2418
2392 2 2412 2413
2393 2 2415 2418
2394 3 2413 2414
2395 3 2415 2416
2396 4 2412 2417
2397 1 2418 2424
2398 2 2418 2419
2399 2 2421 2424
2400 3 2419 2420
2401 3 2421 2422
2402 4 2418 2423
2403 1 2424 2430
2404 2 2424 2425
2405 2 2427 2430
2406 3 2425 2426
2407 3 2427 2428
2408 4 2424 2429
2409 1 2430 2436
2410 2 2430 2431
2411 2 2433 2436
2412 3 2431 2432
2413 3 2433 2434
2414 4 2430 2435
2415 1 2436 2442
2416 2 2436 2437
2417 2 2439 2442
2418 3 2437 2438
2419 3 2439 2440
2420 4 2436 2441
2421 1 2442 2448
2422 2 2442 2443
2423 2 2445 2448
2424 3 2443 2444
2425 3 2445 2446
2426 4 2442 2447
2427 1 2448 2454
2428 2 2448 2449
2429 2 2451 2454
2430 3 2449 2450
2431 3 2451 2452
2432 4 2448 2453
2433 1 2454 2460
2434 2 2454 2455
2435 2 2457 2460
2436 3 2455 2456
2437 3 2457 2458
2438 4 2454 2459
2439 1 2460 2466
2440 2 2460 2461
2441 2 2463 2466
2442 3 2461 2462
2443 3 2463 2464
2444 4 2460 2465
2445 1 2466 2472
2446 2 2466 2467
2447 2 2469 2472
2448 3 2467 2468
2449 3 2469 2470
2450 4 2466 2471
2451 1 2472 2478
2452 2 2472 2473
2453 2 2475 2478
2454 3 2473 2474
2455 3 2475 2476
2456 4 2472 2477
2457 1 2478 2484
2458 2 2478 2479
2459 2 2481 2484
2460 3 2479 2480
2461 3 2481 2482
2462 4 2478 2483
2463 1 2484 2490
2464 2 2484 2485
2465 2 2487 2490
2466 3 2485 2486
2467 3 2487 2488
2468 4 2484 2489
2469 1 2490 2496
2470 2 2490 2491
2471 2 2493 2496
2472 3 2491 2492
2473 3 2493 2494
2474 4 2490 2495
2475 1 2496 2502
2476 2 2496 2497
2477 2 2499 2502
2478 3 2497 2498
2479 3 2499 2500
2480 4 2496 2501
2481 1 2502 2508
2482 2 2502 2503
2483 2 2505 2508
2484 3 2503 2504
2485 3 2505 2506
2486 4 2502 2507
2487 1 2509 2514
2488 2 2509 2510
2489 2 2512 2514
2490 3 2510 2511
2491 3 2512 2513
2492 1 2514 2520
2493 2 2514 2515
2494 2 2517 2520
2495 3 2515 2516
2496 3 2517 2518
2497 4 2514 2519
2498 1 2520 2526
2499 2 2520 2521
2500 2 2523 2526
2501 3 2521 2522
2502 3 2523 2524
2503 4 2520 2525
2504 1 2526 2532
2505 2 2526 2527
2506 2 2529 2532
2507 3 2527 2528
2508 3 2529 2530
2509 4 2526 2531
2510 1 2532 2538
2511 2 2532 2533
2512 2 2535 2538
2513 3 2533 2534
2514 3 2535 2536
2515 4 2532 2537
2516 1 2538 2544
2517 2 2538 2539
2518 2 2541 2544
2519 3 2539 2540
2520 3 2541 2542
2521 4 2538 2543
2522 1 2544 2550
2523 2 2544 2545
2524 2 2547 2550
2525 3 2545 2546
2526 3 2547 2548
2527 4 2544 2549
2528 1 2550 2556
2529 2 2550 2551
2530 2 2553 2556
2531 3 2551 2552
2532 3 2553 2554
2533 4 2550 2555
2534 1 2556 2562
2535 2 2556 2557
2536 2 2559 2562
2537 3 2557 2558
2538 3 2559 2560
2539 4 2556 2561
2540 1 2562 2568
2541 2 2562 2563
2542 2 2565 2568
2543 3 2563 2564
2544 3 2565 2566
2545 4 2562 2567
2546 1 2568 2574
2547 2 2568 2569
2548 2 2571 2574
2549 3 2569 2570
2550 3 2571 2572
2551 4 2568 2573
2552 1 2574 2580
2553 2 2574 2575
2554 2 2577 2580
2555 3 2575 2576
2556 3 2577 2578
2557 4 2574 2579
2558 1 2580 2586
2559 2 2580 2581
2560 2 2583 2586
2561 3 2581 2582
2562 3 2583 2584
2563 4 2580 2585
2564 1 2586 2592
2565 2 2586 2587
2566 2 2589 2592
2567 3 2587 2588
2568 3 2589 2590
2569 4 2586 2591
2570 1 2592 2598
2571 2 2592 2593
2572 2 2595 2598
2573 3 2593 2594
2574 3 2595 2596
2575 4 2592 2597
2576 1 2598 2604
2577 2 2598 2599
2578 2 2601 2604
2579 3 2599 2600
2580 3 2601 2602
2581 4 2598 2603
2582 1 2604 2610
2583 2 2604 2605
2584 2 2607 2610
2585 3 2605 2606
2586 3 2607 2608
2587 4 2604 2609
2588 1 2610 2616
2589 2 2610 2611
2590 2 2613 2616
2591 3 2611 2612
2592 3 2613 2614
2593 4 2610 2615
2594 1 2616 2622
2595 2 2616 2617
2596 2 2619 2622
2597 3 2617 2618
2598 3 2619 2620
2599 4 2616 2621
2600 1 2623 2628
2601 2 2623 2624
2602 2 2626 2628
2603 3 2624 2625
2604 3 2626 2627
2605 1 2628 2634
2606 2 2628 2629
2607 2 2631 2634
2608 3 2629 2630
2609 3 2631 2632
2610 4 2628 2633
2611 1 2634 2640
2612 2 2634 2635
2613 2 2637 2640
2614 3 2635 2636
2615 3 2637 2638
2616 4 2634 2639
2617 1 2640 2646
2618 2 2640 2641
2619 2 2643 2646
2620 3 2641 2642
2621 3 2643 2644
2622 4 2640 2645
2623 1 2646 2652
2624 2 2646 2647
2625 2 2649 2652
2626 3 2647 2648
2627 3 2649 2650
2628 4 2646 2651
2629 1 2652 2658
2630 2 2652 2653
2631 2 2655 2658
2632 3 2653 2654
2633 3 2655 2656
2634 4 2652 2657
2635 1 2658 2664
2636 2 2658 2659
2637 2 2661 2664
2638 3 2659 2660
2639 3 2661 2662
2640 4 2658 2663
2641 1 2664 2670
2642 2 2664 2665
2643 2 2667 2670
2644 3 2665 2666
2645 3 2667 2668
2646 4 2664 2669
2647 1 2670 2676
2648 2 2670 2671
2649 2 2673 2676
2650 3 2671 2672
2651 3 2673 2674
2652 4 2670 2675
2653 1 2676 2682
2654 2 2676 2677
2655 2 2679 2682
2656 3 2677 2678
2657 3 2679 2680
2658 4 2676 2681
2659 1 2682 2688
2660 2 2682 2683
2661 2 2685 2688
2662 3 2683 2684
2663 3 2685 2686
2664 4 2682 2687
2665 1 2688 2694
2666 2 2688 2689
2667 2 2691 2694
2668 3 2689 2690
2669 3 2691 2692
2670 4 2688 2693
2671 1 2694 2700
2672 2 2694 2695
2673 2 2697 2700
2674 3 2695 2696
2675 3 2697 2698
2676 4 2694 2699
2677 1 2700 2706
2678 2 2700 2701
2679 2 2703 2706
2680 3 2701 2702
2681 3 2703 2704
2682 4 2700 2705
2683 1 2706 2712
2684 2 2706 2707
2685 2 2709 2712
2686 3 2707 2708
2687 3 2709 2710
2688 4 2706 2711
2689 1 2712 2718
2690 2 2712 2713
2691 2 2715 2718
2692 3 2713 2714
2693 3 2715 2716
2694 4 2712 2717
2695 1 2718 2724
2696 2 2718 2719
2697 2 2721 2724
2698 3 2719 2720
2699 3 2721 2722
2700 4 2718 2723
2701 1 2724 2730
2702 2 2724 2725
2703 2 2727 2730
2704 3 2725 2726
2705 3 2727 2728
2706 4 2724 2729
2707 1 2730 2736
2708 2 2730 2731
2709 2 2733 2736
2710 3 2731 2732
2711 3 2733 2734
2712 4 2730 2735
2713 1 2737 2742
2714 2 2737 2738
2715 2 2740 2742
2716 3 2738 2739
2717 3 2740 2741
2718 1 2742 2748
2719 2 2742 2743
2720 2 2745 2748
2721 3 2743 2744
2722 3 2745 2746
2723 4 2742 2747
2724 1 2748 2754
2725 2 2748 2749
2726 2 2751 2754
2727 3 2749 2750
2728 3 2751 2752
2729 4 2748 2753
2730 1 2754 2760
2731 2 2754 2755
2732 2 2757 2760
2733 3 2755 2756
2734 3 2757 2758
2735 4 2754 2759
2736 1 2760 2766
2737 2 2760 2761
2738 2 2763 2766
2739 3 2761 2762
2740 3 2763 2764
2741 4 2760 2765
2742 1 2766 2772
2743 2 2766 2767
2744 2 2769 2772
2745 3 2767 2768
2746 3 2769 2770
2747 4 2766 2771
2748 1 2772 2778
2749 2 2772 2773
2750 2 2775 2778
2751 3 2773 2774
2752 3 2775 2776
2753 4 2772 2777
2754 1 2778 2784
2755 2 2778 2779
2756 2 2781 2784
2757 3 2779 2780
2758 3 2781 2782
2759 4 2778 2783
2760 1 2784 2790
2761 2 2784 2785
2762 2 2787 2790
2763 3 2785 2786
2764 3 2787 2788
2765 4 2784 2789
2766 1 2790 2796
2767 2 2790 2791
2768 2 2793 2796
2769 3 2791 2792
2770 3 2793 2794
2771 4 2790 2795
2772 1 2796 2802
2773 2 2796 2797
2774 2 2799 2802
2775 3 2797 2798
2776 3 2799 2800
2777 4 2796 2801
2778 1 2802 2808
2779 2 2802 2803
2780 2 2805 2808
2781 3 2803 2804
2782 3 2805 2806
2783 4 2802 2807
2784 1 2808 2814
2785 2 2808 2809
2786 2 2811 2814
2787 3 2809 2810
2788 3 2811 2812
2789 4 2808 2813
2790 1 2814 2820
2791 2 2814 2815
2792 2 2817 2820
2793 3 2815 2816
2794 3 2817 2818
2795 4 2814 2819
2796 1 2820 2826
2797 2 2820 2821
2798 2 2823 2826
2799 3 2821 2822
2800 3 2823 2824
2801 4 2820 2825
2802 1 2826 2832
2803 2 2826 2827
2804 2 2829 2832
2805 3 2827 2828
2806 3 2829 2830
2807 4 2826 2831
2808 1 2832 2838
2809 2 2832 2833
2810 2 2835 2838
2811 3 2833 2834
2812 3 2835 2836
2813 4 2832 2837
2814 1 2838 2844
2815 2 2838 2839
2816 2 2841 2844
2817 3 2839 2840
2818 3 2841 2842
2819 4 2838 2843
2820 1 2844 2850
2821 2 2844 2845
2822 2 2847 2850
2823 3 2845 2846
2824 3 2847 2848
2825 4 2844 2849
2826 1 2851 2856
2827 2 2851 2852
2828 2 2854 2856
2829 3 2852 2853
2830 3 2854 2855
2831 1 2856 2862
2832 2 2856 2857
2833 2 2859 2862
2834 3 2857 2858
2835 3 2859 2860
2836 4 2856 2861
2837 1 2862 2868
2838 2 2862 2863
2839 2 2865 2868
2840 3 2863 2864
2841 3 2865 2866
2842 4 2862 2867
2843 1 2868 2874
2844 2 2868 2869
2845 2 2871 2874
2846 3 2869 2870
2847 3 2871 2872
2848 4 2868 2873
2849 1 2874 2880
2850 2 2874 2875
2851 2 2877 2880
2852 3 2875 2876
2853 3 2877 2878
2854 4 2874 2879
2855 1 2880 2886
2856 2 2880 2881
2857 2 2883 2886
2858 3 2881 2882
2859 3 2883 2884
2860 4 2880 2885
2861 1 2886 2892
2862 2 2886 2887
2863 2 2889 2892
2864 3 2887 2888
2865 3 2889 2890
2866 4 2886 2891
2867 1 2892 2898
2868 2 2892 2893
2869 2 2895 2898
2870 3 2893 2894
2871 3 2895 2896
2872 4 2892 2897
2873 1 2898 2904
2874 2 2898 2899
2875 2 2901 2904
2876 3 2899 2900
2877 3 2901 2902
2878 4 2898 2903
2879 1 2904 2910
2880 2 2904 2905
2881 2 2907 2910
2882 3 2905 2906
2883 3 2907 2908
2884 4 2904 2909
2885 1 2910 2916
2886 2 2910 2911
2887 2 2913 2916
2888 3 2911 2912
2889 3 2913 2914
2890 4 2910 2915
2891 1 2916 2922
2892 2 2916 2917
2893 2 2919 2922
2894 3 2917 2918
2895 3 2919 2920
2896 4 2916 2921
2897 1 2922 2928
2898 2 2922 2923
2899 2 2925 2928
2900 3 2923 2924
2901 3 2925 2926
2902 4 2922 2927
2903 1 2928 2934
2904 2 2928 2929
2905 2 2931 2934
2906 3 2929 2930
2907 3 2931 2932
2908 4 2928 2933
2909 1 2934 2940
2910 2 2934 2935
2911 2 2937 2940
2912 3 2935 2936
2913 3 2937 2938
2914 4 2934 2939
2915 1 2940 2946
2916 2 2940 2941
2917 2 2943 2946
2918 3 2941 2942
2919 3 2943 2944
2920 4 2940 2945
2921 1 2946 2952
2922 2 2946 2947
2923 2 2949 2952
2924 3 2947 2948
2925 3 2949 2950
2926 4 2946 2951
2927 1 2952 2958
2928 2 2952 2953
2929 2 2955 2958
2930 3 2953 2954
2931 3 2955 2956
2932 4 2952 2957
2933 1 2958 2964
2934 2 2958 2959
2935 2 2961 2964
2936 3 2959 2960
2937 3 2961 2962
2938 4 2958 2963
2939 1 2965 2970
2940 2 2965 2966
2941 2 2968 2970
2942 3 2966 2967
2943 3 2968 2969
2944 1 2970 2976
2945 2 2970 2971
2946 2 2973 2976
2947 3 2971 2972
2948 3 2973 2974
2949 4 2970 2975
2950 1 2976 2982
2951 2 2976 2977
2952 2 2979 2982
2953 3 2977 2978
2954 3 2979 2980
2955 4 2976 2981
2956 1 2982 2988
2957 2 2982 2983
2958 2 2985 2988
2959 3 2983 2984
2960 3 2985 2986
2961 4 2982 2987
2962 1 2988 2994
2963 2 2988 2989
2964 2 2991 2994
2965 3 2989 2990
2966 3 2991 2992
2967 4 2988 2993
2968 1 2994 3000
2969 2 2994 2995
2970 2 2997 3000
2971 3 2995 2996
2972 3 2997 2998
2973 4 2994 2999
2974 1 3000 3006
2975 2 3000 3001
2976 2 3003 3006
2977 3 3001 3002
2978 3 3003 3004
2979 4 3000 3005
2980 1 3006 3012
2981 2 3006 3007
2982 2 3009 3012
2983 3 3007 3008
2984 3 3009 3010
2985 4 3006 3011
2986 1 3012 3018
2987 2 3012 3013
2988 2 3015 3018
2989 3 3013 3014
2990 3 3015 3016
2991 4 3012 3017
2992 1 3018 3024
2993 2 3018 3019
2994 2 3021 3024
2995 3 3019 3020
2996 3 3021 3022
2997 4 3018 3023
2998 1 3024 3030
2999 2 3024 3025
3000 2 3027 3030
3001 3 3025 3026
3002 3 3027 3028
3003 4 3024 3029
3004 1 3030 3036
3005 2 3030 3031
3006 2 3033 3036
3007 3 3031 3032
3008 3 3033 3034
3009 4 3030 3035
3010 1 3036 3042
3011 2 3036 3037
3012 2 3039 3042
3013 3 3037 3038
3014 3 3039 3040
3015 4 3036 3041
3016 1 3042 3048
3017 2 3042 3043
3018 2 3045 3048
3019 3 3043 3044
3020 3 3045 3046
3021 4 3042 3047
3022 1 3048 3054
3023 2 3048 3049
3024 2 3051 3054
3025 3 3049 3050
3026 3 3051 3052
3027 4 3048 3053
3028 1 3054 3060
3029 2 3054 3055
3030 2 3057 3060
3031 3 3055 3056
3032 3 3057 3058
3033 4 3054 3059
3034 1 3060 3066
3035 2 3060 3061
3036 2 3063 3066
3037 3 3061 3062
3038 3 3063 3064
3039 4 3060 3065
3040 1 3066 3072
3041 2 3066 3067
3042 2 3069 3072
3043 3 3067 3068
3044 3 3069 3070
3045 4 3066 3071
3046 1 3072 3078
3047 2 3072 3073
3048 2 3075 3078
3049 3 3073 3074
3050 3 3075 3076
3051 4 3072 3077
3052 1 3079 3084
3053 2 3079 3080
3054 2 3082 3084
3055 3 3080 3081
3056 3 3082 3083
3057 1 3084 3090
3058 2 3084 3085
3059 2 3087 3090
3060 3 3085 3086
3061 3 3087 3088
3062 4 3084 3089
3063 1 3090 3096
3064 2 3090 3091
3065 2 3093 3096
3066 3 3091 3092
3067 3 3093 3094
3068 4 3090 3095
3069 1 3096 3102
3070 2 3096 3097
3071 2 3099 3102
3072 3 3097 3098
3073 3 3099 3100
3074 4 3096 3101
3075 1 3102 3108
3076 2 3102 3103
3077 2 3105 3108
3078 3 3103 3104
3079 3 3105 3106
3080 4 3102 3107
3081 1 3108 3114
3082 2 3108 3109
3083 2 3111 3114
3084 3 3109 3110
3085 3 3111 3112
3086 4 3108 3113
3087 1 3114 3120
3088 2 3114 3115
3089 2 3117 3120
3090 3 3115 3116
3091 3 3117 3118
3092 4 3114 3119
3093 1 3120 3126
3094 2 3120 3121
3095 2 3123 3126
3096 3 3121 3122
3097 3 3123 3124
3098 4 3120 3125
3099 1 3126 3132
3100 2 3126 3127
3101 2 3129 3132
3102 3 3127 3128
3103 3 3129 3130
3104 4 3126 3131
3105 1 3132 3138
3106 2 3132 3133
3107 2 3135 3138
3108 3 3133 3134
3109 3 3135 3136
3110 4 3132 3137
3111 1 3138 3144
3112 2 3138 3139
3113 2 3141 3144
3114 3 3139 3140
3115 3 3141 3142
3116 4 3138 3143
3117 1 3144 3150
3118 2 3144 3145
3119 2 3147 3150
3120 3 3145 3146
3121 3 3147 3148
3122 4 3144 3149
3123 1 3150 3156
3124 2 3150 3151
3125 2 3153 3156
3126 3 3151 3152
3127 3 3153 3154
3128 4 3150 3155
3129 1 3156 3162
3130 2 3156 3157
3131 2 3159 3162
3132 3 3157 3158
3133 3 3159 3160
3134 4 3156 3161
3135 1 3162 3168
3136 2 3162 3163
3137 2 3165 3168
3138 3 3163 3164
3139 3 3165 3166
3140 4 3162 3167
3141 1 3168 3174
3142 2 3168 3169
3143 2 3171 3174
3144 3 3169 3170
3145 3 3171 3172
3146 4 3168 3173
3147 1 3174 3180
3148 2 3174 3175
3149 2 3177 3180
3150 3 3175 3176
3151 3 3177 3178
3152 4 3174 3179
3153 1 3180 3186
3154 2 3180 3181
3155 2 3183 3186
3156 3 3181 3182
3157 3 3183 3184
3158 4 3180 3185
3159 1 3186 3192
3160 2 3186 3187
3161 2 3189 3192
3162 3 3187 3188
3163 3 3189 3190
3164 4 3186 3191
3165 1 3193 3198
3166 2 3193 3194
3167 2 3196 3198
3168 3 3194 3195
3169 3 3196 3197
3170 1 3198 3204
3171 2 3198 3199
3172 2 3201 3204
3173 3 3199 3200
3174 3 3201 3202
3175 4 3198 3203
3176 1 3204 3210
3177 2 3204 3205
3178 2 3207 3210
3179 3 3205 3206
3180 3 3207 3208
3181 4 3204 3209
3182 1 3210 3216
3183 2 3210 3211
3184 2 3213 3216
3185 3 3211 3212
3186 3 3213 3214
3187 4 3210 3215
3188 1 3216 3222
3189 2 3216 3217
3190 2 3219 3222
3191 3 3217 3218
3192 3 3219 3220
3193 4 3216 3221
3194 1 3222 3228
3195 2 3222 3223
3196 2 3225 3228
3197 3 3223 3224
3198 3 3225 3226
3199 4 3222 3227
3200 1 3228 3234
3201 2 3228 3229
3202 2 3231 3234
3203 3 3229 3230
3204 3 3231 3232
3205 4 3228 3233
3206 1 3234 3240
3207 2 3234 3235
3208 2 3237 3240
3209 3 3235 3236
3210 3 3237 3238
3211 4 3234 3239
3212 1 3240 3246
3213 2 3240 3241
3214 2 3243 3246
3215 3 3241 3242
3216 3 3243 3244
3217 4 3240 3245
3218 1 3246 3252
3219 2 3246 3247
3220 2 3249 3252
3221 3 3247 3248
3222 3 3249 3250
3223 4 3246 3251
3224 1 3252 3258
3225 2 3252 3253
3226 2 3255 3258
3227 3 3253 3254
3228 3 3255 3256
3229 4 3252 3257
3230 1 3258 3264
3231 2 3258 3259
3232 2 3261 3264
3233 3 3259 3260
3234 3 3261 3262
3235 4 3258 3263
3236 1 3264 3270
3237 2 3264 3265
3238 2 3267 3270
3239 3 3265 3266
3240 3 3267 3268
3241 4 3264 3269
3242 1 3270 3276
3243 2 3270 3271
3244 2 3273 3276
3245 3 3271 3272
3246 3 3273 3274
3247 4 3270 3275
3248 1 3276 3282
3249 2 3276 3277
3250 2 3279 3282
3251 3 3277 3278
3252 3 3279 3280
3253 4 3276 3281
3254 1 3282 3288
3255 2 3282 3283
3256 2 3285 3288
3257 3 3283 3284
3258 3 3285 3286
3259 4 3282 3287
3260 1 3288 3294
3261 2 3288 3289
3262 2 3291 3294
3263 3 3289 3290
3264 3 3291 3292
3265 4 3288 3293
3266 1 3294 3300
3267 2 3294 3295
3268 2 3297 3300
3269 3 3295 3296
3270 3 3297 3298
3271 4 3294 3299
3272 1 3300 3306
3273 2 3300 3301
3274 2 3303 3306
3275 3 3301 3302
3276 3 3303 3304
3277 4 3300 3305
3278 1 3307 3312
3279 2 3307 3308
3280 2 3310 3312
3281 3 3308 3309
3282 3 3310 3311
3283 1 3312 3318
3284 2 3312 3313
3285 2 3315 3318
3286 3 3313 3314
3287 3 3315 3316
3288 4 3312 3317
3289 1 3318 3324
3290 2 3318 3319
3291 2 3321 3324
3292 3 3319 3320
3293 3 3321 3322
3294 4 3318 3323
3295 1 3324 3330
3296 2 3324 3325
3297 2 3327 3330
3298 3 3325 3326
3299 3 3327 3328
3300 4 3324 3329
3301 1 3330 3336
3302 2 3330 3331
3303 2 3333 3336
3304 3 3331 3332
3305 3 3333 3334
3306 4 3330 3335
3307 1 3336 3342
3308 2 3336 3337
3309 2 3339 3342
3310 3 3337 3338
3311 3 3339 3340
3312 4 3336 3341
3313 1 3342 3348
3314 2 3342 3343
3315 2 3345 3348
3316 3 3343 3344
3317 3 3345 3346
3318 4 3342 3347
3319 1 3348 3354
3320 2 3348 3349
3321 2 3351 3354
3322 3 3349 3350
3323 3 3351 3352
3324 4 3348 3353
3325 1 3354 3360
3326 2 3354 3355
3327 2 3357 3360
3328 3 3355 3356
3329 3 3357 3358
3330 4 3354 3359
3331 1 3360 3366
3332 2 3360 3361
3333 2 3363 3366
3334 3 3361 3362
3335 3 3363 3364
3336 4 3360 3365
3337 1 3366 3372
3338 2 3366 3367
3339 2 3369 3372
3340 3 3367 3368
3341 3 3369 3370
3342 4 3366 3371
3343 1 3372 3378
3344 2 3372 3373
3345 2 3375 3378
3346 3 3373 3374
3347 3 3375 3376
3348 4 3372 3377
3349 1 3378 3384
3350 2 3378 3379
3351 2 3381 3384
3352 3 3379 3380
3353 3 3381 3382
3354 4 3378 3383
3355 1 3384 3390
3356 2 3384 3385
3357 2 3387 3390
3358 3 3385 3386
3359 3 3387 3388
3360 4 3384 3389
3361 1 3390 3396
3362 2 3390 3391
3363 2 3393 3396
3364 3 3391 3392
3365 3 3393 3394
3366 4 3390 3395
3367 1 3396 3402
3368 2 3396 3397
3369 2 3399 3402
3370 3 3397 3398
3371 3 3399 3400
3372 4 3396 3401
3373 1 3402 3408
3374 2 3402 3403
3375 2 3405 3408
3376 3 3403 3404
3377 3 3405 3406
3378 4 3402 3407
3379 1 3408 3414
3380 2 3408 3409
3381 2 3411 3414
3382 3 3409 3410
3383 3 3411 3412
3384 4 3408 3413
3385 1 3414 3420
3386 2 3414 3415
3387 2 3417 3420
3388 3 3415 3416
3389 3 3417 3418
3390 4 3414 3419
3391 1 3421 3426
3392 2 3421 3422
3393 2 3424 3426
3394 3 3422 3423
3395 3 3424 3425
3396 1 3426 3432
3397 2 3426 3427
3398 2 3429 3432
3399 3 3427 3428
3400 3 3429 3430
3401 4 3426 3431
3402 1 3432 3438
3403 2 3432 3433
3404 2 3435 3438
3405 3 3433 3434
3406 3 3435 3436
3407 4 3432 3437
3408 1 3438 3444
3409 2 3438 3439
3410 2 3441 3444
3411 3 3439 3440
3412 3 3441 3442
3413 4 3438 3443
3414 1 3444 3450
3415 2 3444 3445
3416 2 3447 3450
3417 3 3445 3446
3418 3 3447 3448
3419 4 3444 3449
3420 1 3450 3456
3421 2 3450 3451
3422 2 3453 3456
3423 3 3451 3452
3424 3 3453 3454
3425 4 3450 3455
3426 1 3456 3462
3427 2 3456 3457
3428 2 3459 3462
3429 3 3457 3458
3430 3 3459 3460
3431 4 3456 3461
3432 1 3462 3468
3433 2 3462 3463
3434 2 3465 3468
3435 3 3463 3464
3436 3 3465 3466
3437 4 3462 3467
3438 1 3468 3474
3439 2 3468 3469
3440 2 3471 3474
3441 3 3469 3470
3442 3 3471 3472
3443 4 3468 3473
3444 1 3474 3480
3445 2 3474 3475
3446 2 3477 3480
3447 3 3475 3476
3448 3 3477 3478
3449 4 3474 3479
3450 1 3480 3486
3451 2 3480 3481
3452 2 3483 3486
3453 3 3481 3482
3454 3 3483 3484
3455 4 3480 3485
3456 1 3486 3492
3457 2 3486 3487
3458 2 3489 3492
3459 3 3487 3488
3460 3 3489 3490
3461 4 3486 3491
3462 1 3492 3498
3463 2 3492 3493
3464 2 3495 3498
3465 3 3493 3494
3466 3 3495 3496
3467 4 3492 3497
3468 1 3498 3504
3469 2 3498 3499
3470 2 3501 3504
3471 3 3499 3500
3472 3 3501 3502
3473 4 3498 3503
3474 1 3504 3510
3475 2 3504 3505
3476 2 3507 3510
3477 3 3505 3506
3478 3 3507 3508
3479 4 3504 3509
3480 1 3510 3516
3481 2 3510 3511
3482 2 3513 3516
3483 3 3511 3512
3484 3 3513 3514
3485 4 3510 3515
3486 1 3516 3522
3487 2 3516 3517
3488 2 3519 3522
3489 3 3517 3518
3490 3 3519 3520
3491 4 3516 3521
3492 1 3522 3528
3493 2 3522 3523
3494 2 3525 3528
3495 3 3523 3524
3496 3 3525 3526
3497 4 3522 3527
3498 1 3528 3534
3499 2 3528 3529
3500 2 3531 3534
3501 3 3529 3530
3502 3 3531 3532
3503 4 3528 3533
3504 1 3535 3540
3505 2 3535 3536
3506 2 3538 3540
3507 3 3536 3537
3508 3 3538 3539
3509 1 3540 3546
3510 2 3540 3541
3511 2 3543 3546
3512 3 3541 3542
3513 3 3543 3544
3514 4 3540 3545
3515 1 3546 3552
3516 2 3546 3547
3517 2 3549 3552
3518 3 3547 3548
3519 3 3549 3550
3520 4 3546 3551
3521 1 3552 3558
3522 2 3552 3553
3523 2 3555 3558
3524 3 3553 3554
3525 3 3555 3556
3526 4 3552 3557
3527 1 3558 3564
3528 2 3558 3559
3529 2 3561 3564
3530 3 3559 3560
3531 3 3561 3562
3532 4 3558 3563
3533 1 3564 3570
3534 2 3564 3565
3535 2 3567 3570
3536 3 3565 3566
3537 3 3567 3568
3538 4 3564 3569
3539 1 3570 3576
3540 2 3570 3571
3541 2 3573 3576
3542 3 3571 3572
3543 3 3573 3574
3544 4 3570 3575
3545 1 3576 3582
3546 2 3576 3577
3547 2 3579 3582
3548 3 3577 3578
3549 3 3579 3580
3550 4 3576 3581
3551 1 3582 3588
3552 2 3582 3583
3553 2 3585 3588
3554 3 3583 3584
3555 3 3585 3586
3556 4 3582 3587
3557 1 3588 3594
3558 2 3588 3589
3559 2 3591 3594
3560 3 3589 3590
3561 3 3591 3592
3562 4 3588 3593
3563 1 3594 3600
3564 2 3594 3595
3565 2 3597 3600
3566 3 3595 3596
3567 3 3597 3598
3568 4 3594 3599
3569 1 3600 3606
3570 2 3600 3601
3571 2 3603 3606
3572 3 3601 3602
3573 3 3603 3604
3574 4 3600 3605
3575 1 3606 3612
3576 2 3606 3607
3577 2 3609 3612
3578 3 3607 3608
3579 3 3609 3610
3580 4 3606 3611
3581 1 3612 3618
3582 2 3612 3613
3583 2 3615 3618
3584 3 3613 3614
3585 3 3615 3616
3586 4 3612 3617
3587 1 3618 3624
3588 2 3618 3619
3589 2 3621 3624
3590 3 3619 3620
3591 3 3621 3622
3592 4 3618 3623
3593 1 3624 3630
3594 2 3624 3625
3595 2 3627 3630
3596 3 3625 3626
3597 3 3627 3628
3598 4 3624 3629
3599 1 3630 3636
3600 2 3630 3631
3601 2 3633 3636
3602 3 3631 3632
3603 3 3633 3634
3604 4 3630 3635
3605 1 3636 3642
3606 2 3636 3637
3607 2 3639 3642
3608 3 3637 3638
3609 3 3639 3640
3610 4 3636 3641
3611 1 3642 3648
3612 2 3642 3643
3613 2 3645 3648
3614 3 3643 3644
3615 3 3645 3646
3616 4 3642 3647
3617 1 3649 3654
3618 2 3649 3650
3619 2 3652 3654
3620 3 3650 3651
3621 3 3652 3653
3622 1 3654 3660
3623 2 3654 3655
3624 2 3657 3660
3625 3 3655 3656
3626 3 3657 3658
3627 4 3654 3659
3628 1 3660 3666
3629 2 3660 3661
3630 2 3663 3666
3631 3 3661 3662
3632 3 3663 3664
3633 4 3660 3665
3634 1 3666 3672
3635 2 3666 3667
3636 2 3669 3672
3637 3 3667 3668
3638 3 3669 3670
3639 4 3666 3671
3640 1 3672 3678
3641 2 3672 3673
3642 2 3675 3678
3643 3 3673 3674
3644 3 3675 3676
3645 4 3672 3677
3646 1 3678 3684
3647 2 3678 3679
3648 2 3681 3684
3649 3 3679 3680
3650 3 3681 3682
3651 4 3678 3683
3652 1 3684 3690
3653 2 3684 3685
3654 2 3687 3690
3655 3 3685 3686
3656 3 3687 3688
3657 4 3684 3689
3658 1 3690 3696
3659 2 3690 3691
3660 2 3693 3696
3661 3 3691 3692
3662 3 3693 3694
3663 4 3690 3695
3664 1 3696 3702
3665 2 3696 3697
3666 2 3699 3702
3667 3 3697 3698
3668 3 3699 3700
3669 4 3696 3701
3670 1 3702 3708
3671 2 3702 3703
3672 2 3705 3708
3673 3 3703 3704
3674 3 3705 3706
3675 4 3702 3707
3676 1 3708 3714
3677 2 3708 3709
3678 2 3711 3714
3679 3 3709 3710
3680 3 3711 3712
3681 4 3708 3713
3682 1 3714 3720
3683 2 3714 3715
3684 2 3717 3720
3685 3 3715 3716
3686 3 3717 3718
3687 4 3714 3719
3688 1 3720 3726
3689 2 3720 3721
3690 2 3723 3726
3691 3 3721 3722
3692 3 3723 3724
3693 4 3720 3725
3694 1 3726 3732
3695 2 3726 3727
3696 2 3729 3732
3697 3 3727 3728
3698 3 3729 3730
3699 4 3726 3731
3700 1 3732 3738
3701 2 3732 3733
3702 2 3735 3738
3703 3 3733 3734
3704 3 3735 3736
3705 4 3732 3737
3706 1 3738 3744
3707 2 3738 3739
3708 2 3741 3744
3709 3 3739 3740
3710 3 3741 3742
3711 4 3738 3743
3712 1 3744 3750
3713 2 3744 3745
3714 2 3747 3750
3715 3 3745 3746
3716 3 3747 3748
3717 4 3744 3749
3718 1 3750 3756
3719 2 3750 3751
3720 2 3753 3756
3721 3 3751 3752
3722 3 3753 3754
3723 4 3750 3755
3724 1 3756 3762
3725 2 3756 3757
3726 2 3759 3762
3727 3 3757 3758
3728 3 3759 3760
3729 4 3756 3761
3730 1 3763 3768
3731 2 3763 3764
3732 2 3766 3768
3733 3 3764 3765
3734 3 3766 3767
3735 1 3768 3774
3736 2 3768 3769
3737 2 3771 3774
3738 3 3769 3770
3739 3 3771 3772
3740 4 3768 3773
3741 1 3774 3780
3742 2 3774 3775
3743 2 3777 3780
3744 3 3775 3776
3745 3 3777 3778
3746 4 3774 3779
3747 1 3780 3786
3748 2 3780 3781
3749 2 3783 3786
3750 3 3781 3782
3751 3 3783 3784
3752 4 3780 3785
3753 1 3786 3792
3754 2 3786 3787
3755 2 3789 3792
3756 3 3787 3788
3757 3 3789 3790
3758 4 3786 3791
3759 1 3792 3798
3760 2 3792 3793
3761 2 3795 3798
3762 3 3793 3794
3763 3 3795 3796
3764 4 3792 3797
3765 1 3798 3804
3766 2 3798 3799
3767 2 3801 3804
3768 3 3799 3800
3769 3 3801 3802
3770 4 3798 3803
3771 1 3804 3810
3772 2 3804 3805
3773 2 3807 3810
3774 3 3805 3806
3775 3 3807 3808
3776 4 3804 3809
3777 1 3810 3816
3778 2 3810 3811
3779 2 3813 3816
3780 3 3811 3812
3781 3 3813 3814
3782 4 3810 3815
3783 1 3816 3822
3784 2 3816 3817
3785 2 3819 3822
3786 3 3817 3818
3787 3 3819 3820
3788 4 3816 3821
3789 1 3822 3828
3790 2 3822 3823
3791 2 3825 3828
3792 3 3823 3824
3793 3 3825 3826
3794 4 3822 3827
3795 1 3828 3834
3796 2 3828 3829
3797 2 3831 3834
3798 3 3829 3830
3799 3 3831 3832
3800 4 3828 3833
3801 1 3834 3840
3802 2 3834 3835
3803 2 3837 3840
3804 3 3835 3836
3805 3 3837 3838
3806 4 3834 3839
3807 1 3840 3846
3808 2 3840 3841
3809 2 3843 3846
3810 3 3841 3842
3811 3 3843 3844
3812 4 3840 3845
3813 1 3846 3852
3814 2 3846 3847
3815 2 3849 3852
3816 3 3847 3848
3817 3 3849 3850
3818 4 3846 3851
3819 1 3852 3858
3820 2 3852 3853
3821 2 3855 3858
3822 3 3853 3854
3823 3 3855 3856
3824 4 3852 3857
3825 1 3858 3864
3826 2 3858 3859
3827 2 3861 3864
3828 3 3859 3860
3829 3 3861 3862
3830 4 3858 3863
3831 1 3864 3870
3832 2 3864 3865
3833 2 3867 3870
3834 3 3865 3866
3835 3 3867 3868
3836 4 3864 3869
3837 1 3870 3876
3838 2 3870 3871
3839 2 3873 3876
3840 3 3871 3872
3841 3 3873 3874
3842 4 3870 3875
3843 1 3877 3882
3844 2 3877 3878
3845 2 3880 3882
3846 3 3878 3879
3847 3 3880 3881
3848 1 3882 3888
3849 2 3882 3883
3850 2 3885 3888
3851 3 3883 3884
3852 3 3885 3886
3853 4 3882 3887
3854 1 3888 3894
3855 2 3888 3889
3856 2 3891 3894
3857 3 3889 3890
3858 3 3891 3892
3859 4 3888 3893
3860 1 3894 3900
3861 2 3894 3895
3862 2 3897 3900
3863 3 3895 3896
3864 3 3897 3898
3865 4 3894 3899
3866 1 3900 3906
3867 2 3900 3901
3868 2 3903 3906
3869 3 3901 3902
3870 3 3903 3904
3871 4 3900 3905
3872 1 3906 3912
3873 2 3906 3907
3874 2 3909 3912
3875 3 3907 3908
3876 3 3909 3910
3877 4 3906 3911
3878 1 3912 3918
3879 2 3912 3913
3880 2 3915 3918
3881 3 3913 3914
3882 3 3915 3916
3883 4 3912 3917
3884 1 3918 3924
3885 2 3918 3919
3886 2 3921 3924
3887 3 3919 3920
3888 3 3921 3922
3889 4 3918 3923
3890 1 3924 3930
3891 2 3924 3925
3892 2 3927 3930
3893 3 3925 3926
3894 3 3927 3928
3895 4 3924 3929
3896 1 3930 3936
3897 2 3930 3931
3898 2 3933 3936
3899 3 3931 3932
3900 3 3933 3934
3901 4 3930 3935
3902 1 3936 3942
3903 2 3936 3937
3904 2 3939 3942
3905 3 3937 3938
3906 3 3939 3940
3907 4 3936 3941
3908 1 3942 3948
3909 2 3942 3943
3910 2 3945 3948
3911 3 3943 3944
3912 3 3945 3946
3913 4 3942 3947
3914 1 3948 3954
3915 2 3948 3949
3916 2 3951 3954
3917 3 3949 3950
3918 3 3951 3952
3919 4 3948 3953
3920 1 3954 3960
3921 2 3954 3955
3922 2 3957 3960
3923 3 3955 3956
3924 3 3957 3958
3925 4 3954 3959
3926 1 3960 3966
3927 2 3960 3961
3928 2 3963 3966
3929 3 3961 3962
3930 3 3963 3964
3931 4 3960 3965
3932 1 3966 3972
3933 2 3966 3967
3934 2 3969 3972
3935 3 3967 3968
3936 3 3969 3970
3937 4 3966 3971
3938 1 3972 3978
3939 2 3972 3973
3940 2 3975 3978
3941 3 3973 3974
3942 3 3975 3976
3943 4 3972 3977
3944 1 3978 3984
3945 2 3978 3979
3946 2 3981 3984
3947 3 3979 3980
3948 3 3981 3982
3949 4 3978 3983
3950 1 3984 3990
3951 2 3984 3985
3952 2 3987 3990
3953 3 3985 3986
3954 3 3987 3988
3955 4 3984 3989
3956 1 3991 3996
3957 2 3991 3992
3958 2 3994 3996
3959 3 3992 3993
3960 3 3994 3995
3961 1 3996 4002
3962 2 3996 3997
3963 2 3999 4002
3964 3 3997 3998
3965 3 3999 4000
3966 4 3996 4001
3967 1 4002 4008
3968 2 4002 4003
3969 2 4005 4008
3970 3 4003 4004
3971 3 4005 4006
3972 4 4002 4007
3973 1 4008 4014
3974 2 4008 4009
3975 2 4011 4014
3976 3 4009 4010
3977 3 4011 4012
3978 4 4008 4013
3979 1 4014 4020
3980 2 4014 4015
3981 2 4017 4020
3982 3 4015 4016
3983 3 4017 4018
3984 4 4014 4019
3985 1 4020 4026
3986 2 4020 4021
3987 2 4023 4026
3988 3 4021 4022
3989 3 4023 4024
3990 4 4020 4025
3991 1 4026 4032
3992 2 4026 4027
3993 2 4029 4032
3994 3 4027 4028
3995 3 4029 4030
3996 4 4026 4031
3997 1 4032 4038
3998 2 4032 4033
3999 2 4035 4038
4000 3 4033 4034
4001 3 4035 4036
4002 4 4032 4037
4003 1 4038 4044
4004 2 4038 4039
4005 2 4041 4044
4006 3 4039 4040
4007 3 4041 4042
4008 4 4038 4043
4009 1 4044 4050
4010 2 4044 4045
4011 2 4047 4050
4012 3 4045 4046
4013 3 4047 4048
4014 4 4044 4049
4015 1 4050 4056
4016 2 4050 4051
4017 2 4053 4056
4018 3 4051 4052
4019 3 4053 4054
4020 4 4050 4055
4021 1 4056 4062
4022 2 4056 4057
4023 2 4059 4062
4024 3 4057 4058
4025 3 4059 4060
4026 4 4056 4061
4027 1 4062 4068
4028 2 4062 4063
4029 2 4065 4068
4030 3 4063 4064
4031 3 4065 4066
4032 4 4062 4067
4033 1 4068 4074
4034 2 4068 4069
4035 2 4071 4074
4036 3 4069 4070
4037 3 4071 4072
4038 4 4068 4073
4039 1 4074 4080
4040 2 4074 4075
4041 2 4077 4080
4042 3 4075 4076
4043 3 4077 4078
4044 4 4074 4079
4045 1 4080 4086
4046 2 4080 4081
4047 2 4083 4086
4048 3 4081 4082
4049 3 4083 4084
4050 4 4080 4085
4051 1 4086 4092
4052 2 4086 4087
4053 2 4089 4092
4054 3 4087 4088
4055 3 4089 4090
4056 4 4086 4091
4057 1 4092 4098
4058 2 4092 4093
4059 2 4095 4098
4060 3 4093 4094
4061 3 4095 4096
4062 4 4092 4097
4063 1 4098 4104
4064 2 4098 4099
4065 2 4101 4104
4066 3 4099 4100
4067 3 4101 4102
4068 4 4098 4103
4069 1 4105 4110
4070 2 4105 4106
4071 2 4108 4110
4072 3 4106 4107
4073 3 4108 4109
4074 1 4110 4116
4075 2 4110 4111
4076 2 4113 4116
4077 3 4111 4112
4078 3 4113 4114
4079 4 4110 4115
4080 1 4116 4122
4081 2 4116 4117
4082 2 4119 4122
4083 3 4117 4118
4084 3 4119 4120
4085 4 4116 4121
4086 1 4122 4128
4087 2 4122 4123
4088 2 4125 4128
4089 3 4123 4124
4090 3 4125 4126
4091 4 4122 4127
4092 1 4128 4134
4093 2 4128 4129
4094 2 4131 4134
4095 3 4129 4130
4096 3 4131 4132
4097 4 4128 4133
4098 1 4134 4140
4099 2 4134 4135
4100 2 4137 4140
4101 3 4135 4136
4102 3 4137 4138
4103 4 4134 4139
4104 1 4140 4146
4105 2 4140 4141
4106 2 4143 4146
4107 3 4141 4142
4108 3 4143 4144
4109 4 4140 4145
4110 1 4146 4152
4111 2 4146 4147
4112 2 4149 4152
4113 3 4147 4148
4114 3 4149 4150
4115 4 4146 4151
4116 1 4152 4158
4117 2 4152 4153
4118 2 4155 4158
4119 3 4153 4154
4120 3 4155 4156
4121 4 4152 4157
4122 1 4158 4164
4123 2 4158 4159
4124 2 4161 4164
4125 3 4159 4160
4126 3 4161 4162
4127 4 4158 4163
4128 1 4164 4170
4129 2 4164 4165
4130 2 4167 4170
4131 3 4165 4166
4132 3 4167 4168
4133 4 4164 4169
4134 1 4170 4176
4135 2 4170 4171
4136 2 4173 4176
4137 3 4171 4172
4138 3 4173 4174
4139 4 4170 4175
4140 1 4176 4182
4141 2 4176 4177
4142 2 4179 4182
4143 3 4177 4178
4144 3 4179 4180
4145 4 4176 4181
4146 1 4182 4188
4147 2 4182 4183
4148 2 4185 4188
4149 3 4183 4184
4150 3 4185 4186
4151 4 4182 4187
4152 1 4188 4194
4153 2 4188 4189
4154 2 4191 4194
4155 3 4189 4190
4156 3 4191 4192
4157 4 4188 4193
4158 1 4194 4200
4159 2 4194 4195
4160 2 4197 4200
4161 3 4195 4196
4162 3 4197 4198
4163 4 4194 4199
4164 1 4200 4206
4165 2 4200 4201
4166 2 4203 4206
4167 3 4201 4202
4168 3 4203 4204
4169 4 4200 4205
4170 1 4206 4212
4171 2 4206 4207
4172 2 4209 4212
4173 3 4207 4208
4174 3 4209 4210
4175 4 4206 4211
4176 1 4212 4218
4177 2 4212 4213
4178 2 4215 4218
4179 3 4213 4214
4180 3 4215 4216
4181 4 4212 4217
4182 1 4219 4224
4183 2 4219 4220
4184 2 4222 4224
4185 3 4220 4221
4186 3 4222 4223
4187 1 4224 4230
4188 2 4224 4225
4189 2 4227 4230
4190 3 4225 4226
4191 3 4227 4228
4192 4 4224 4229
4193 1 4230 4236
4194 2 4230 4231
4195 2 4233 4236
4196 3 4231 4232
4197 3 4233 4234
4198 4 4230 4235
4199 1 4236 4242
4200 2 4236 4237
4201 2 4239 4242
4202 3 4237 4238
4203 3 4239 4240
4204 4 4236 4241
4205 1 4242 4248
4206 2 4242 4243
4207 2 4245 4248
4208 3 4243 4244
4209 3 4245 4246
4210 4 4242 4247
4211 1 4248 4254
4212 2 4248 4249
4213 2 4251 4254
4214 3 4249 4250
4215 3 4251 4252
4216 4 4248 4253
4217 1 4254 4260
4218 2 4254 4255
4219 2 4257 4260
4220 3 4255 4256
4221 3 4257 4258
4222 4 4254 4259
4223 1 4260 4266
4224 2 4260 4261
4225 2 4263 4266
4226 3 4261 4262
4227 3 4263 4264
4228 4 4260 4265
4229 1 4266 4272
4230 2 4266 4267
4231 2 4269 4272
4232 3 4267 4268
4233 3 4269 4270
4234 4 4266 4271
4235 1 4272 4278
4236 2 4272 4273
4237 2 4275 4278
4238 3 4273 4274
4239 3 4275 4276
4240 4 4272 4277
4241 1 4278 4284
4242 2 4278 4279
4243 2 4281 4284
4244 3 4279 4280
4245 3 4281 4282
4246 4 4278 4283
4247 1 4284 4290
4248 2 4284 4285
4249 2 4287 4290
4250 3 4285 4286
4251 3 4287 4288
4252 4 4284 4289
4253 1 4290 4296
4254 2 4290 4291
4255 2 4293 4296
4256 3 4291 4292
4257 3 4293 4294
4258 4 4290 4295
4259 1 4296 4302
4260 2 4296 4297
4261 2 4299 4302
4262 3 4297 4298
4263 3 4299 4300
4264 4 4296 4301
4265 1 4302 4308
4266 2 4302 4303
4267 2 4305 4308
4268 3 4303 4304
4269 3 4305 4306
4270 4 4302 4307
4271 1 4308 4314
4272 2 4308 4309
4273 2 4311 4314
4274 3 4309 4310
4275 3 4311 4312
4276 4 4308 4313
4277 1 4314 4320
4278 2 4314 4315
4279 2 4317 4320
4280 3 4315 4316
4281 3 4317 4318
4282 4 4314 4319
4283 1 4320 4326
4284 2 4320 4321
4285 2 4323 4326
4286 3 4321 4322
4287 3 4323 4324
4288 4 4320 4325
4289 1 4326 4332
4290 2 4326 4327
4291 2 4329 4332
4292 3 4327 4328
4293 3 4329 4330
4294 4 4326 4331
4295 1 4333 4338
4296 2 4333 4334
4297 2 4336 4338
4298 3 4334 4335
4299 3 4336 4337
4300 1 4338 4344
4301 2 4338 4339
4302 2 4341 4344
4303 3 4339 4340
4304 3 4341 4342
4305 4 4338 4343
4306 1 4344 4350
4307 2 4344 4345
4308 2 4347 4350
4309 3 4345 4346
4310 3 4347 4348
4311 4 4344 4349
4312 1 4350 4356
4313 2 4350 4351
4314 2 4353 4356
4315 3 4351 4352
4316 3 4353 4354
4317 4 4350 4355
4318 1 4356 4362
4319 2 4356 4357
4320 2 4359 4362
4321 3 4357 4358
4322 3 4359 4360
4323 4 4356 4361
4324 1 4362 4368
4325 2 4362 4363
4326 2 4365 4368
4327 3 4363 4364
4328 3 4365 4366
4329 4 4362 4367
4330 1 4368 4374
4331 2 4368 4369
4332 2 4371 4374
4333 3 4369 4370
4334 3 4371 4372
4335 4 4368 4373
4336 1 4374 4380
4337 2 4374 4375
4338 2 4377 4380
4339 3 4375 4376
4340 3 4377 4378
4341 4 4374 4379
4342 1 4380 4386
4343 2 4380 4381
4344 2 4383 4386
4345 3 4381 4382
4346 3 4383 4384
4347 4 4380 4385
4348 1 4386 4392
4349 2 4386 4387
4350 2 4389 4392
4351 3 4387 4388
4352 3 4389 4390
4353 4 4386 4391
4354 1 4392 4398
4355 2 4392 4393
4356 2 4395 4398
4357 3 4393 4394
4358 3 4395 4396
4359 4 4392 4397
4360 1 4398 4404
4361 2 4398 4399
4362 2 4401 4404
4363 3 4399 4400
4364 3 4401 4402
4365 4 4398 4403
4366 1 4404 4410
4367 2 4404 4405
4368 2 4407 4410
4369 3 4405 4406
4370 3 4407 4408
4371 4 4404 4409
4372 1 4410 4416
4373 2 4410 4411
4374 2 4413 4416
4375 3 4411 4412
4376 3 4413 4414
4377 4 4410 4415
4378 1 4416 4422
4379 2 4416 4417
4380 2 4419 4422
4381 3 4417 4418
4382 3 4419 4420
4383 4 4416 4421
4384 1 4422 4428
4385 2 4422 4423
4386 2 4425 4428
4387 3 4423 4424
4388 3 4425 4426
4389 4 4422 4427
4390 1 4428 4434
4391 2 4428 4429
4392 2 4431 4434
4393 3 4429 4430
4394 3 4431 4432
4395 4 4428 4433
4396 1 4434 4440
4397 2 4434 4435
4398 2 4437 4440
4399 3 4435 4436
4400 3 4437 4438
4401 4 4434 4439
4402 1 4440 4446
4403 2 4440 4441
4404 2 4443 4446
4405 3 4441 4442
4406 3 4443 4444
4407 4 4440 4445
4408 1 4447 4452
4409 2 4447 4448
4410 2 4450 4452
4411 3 4448 4449
4412 3 4450 4451
4413 1 4452 4458
4414 2 4452 4453
4415 2 4455 4458
4416 3 4453 4454
4417 3 4455 4456
4418 4 4452 4457
4419 1 4458 4464
4420 2 4458 4459
4421 2 4461 4464
4422 3 4459 4460
4423 3 4461 4462
4424 4 4458 4463
4425 1 4464 4470
4426 2 4464 4465
4427 2 4467 4470
4428 3 4465 4466
4429 3 4467 4468
4430 4 4464 4469
4431 1 4470 4476
4432 2 4470 4471
4433 2 4473 4476
4434 3 4471 4472
4435 3 4473 4474
4436 4 4470 4475
4437 1 4476 4482
4438 2 4476 4477
4439 2 4479 4482
4440 3 4477 4478
4441 3 4479 4480
4442 4 4476 4481
4443 1 4482 4488
4444 2 4482 4483
4445 2 4485 4488
4446 3 4483 4484
4447 3 4485 4486
4448 4 4482 4487
4449 1 4488 4494
4450 2 4488 4489
4451 2 4491 4494
4452 3 4489 4490
4453 3 4491 4492
4454 4 4488 4493
4455 1 4494 4500
4456 2 4494 4495
4457 2 4497 4500
4458 3 4495 4496
4459 3 4497 4498
4460 4 4494 4499
4461 1 4500 4506
4462 2 4500 4501
4463 2 4503 4506
4464 3 4501 4502
4465 3 4503 4504
4466 4 4500 4505
4467 1 4506 4512
4468 2 4506 4507
4469 2 4509 4512
4470 3 4507 4508
4471 3 4509 4510
4472 4 4506 4511
4473 1 4512 4518
4474 2 4512 4513
4475 2 4515 4518
4476 3 4513 4514
4477 3 4515 4516
4478 4 4512 4517
4479 1 4518 4524
4480 2 4518 4519
4481 2 4521 4524
4482 3 4519 4520
4483 3 4521 4522
4484 4 4518 4523
4485 1 4524 4530
4486 2 4524 4525
4487 2 4527 4530
4488 3 4525 4526
4489 3 4527 4528
4490 4 4524 4529
4491 1 4530 4536
4492 2 4530 4531
4493 2 4533 4536
4494 3 4531 4532
4495 3 4533 4534
4496 4 4530 4535
4497 1 4536 4542
4498 2 4536 4537
4499 2 4539 4542
4500 3 4537 4538
4501 3 4539 4540
4502 4 4536 4541
4503 1 4542 4548
4504 2 4542 4543
4505 2 4545 4548
4506 3 4543 4544
4507 3 4545 4546
4508 4 4542 4547
4509 1 4548 4554
4510 2 4548 4549
4511 2 4551 4554
4512 3 4549 4550
4513 3 4551 4552
4514 4 4548 4553
4515 1 4554 4560
4516 2 4554 4555
4517 2 4557 4560
4518 3 4555 4556
4519 3 4557 4558
4520 4 4554 4559
4521 1 4561 4566
4522 2 4561 4562
4523 2 4564 4566
4524 3 4562 4563
4525 3 4564 4565
4526 1 4566 4572
4527 2 4566 4567
4528 2 4569 4572
4529 3 4567 4568
4530 3 4569 4570
4531 4 4566 4571
4532 1 4572 4578
4533 2 4572 4573
4534 2 4575 4578
4535 3 4573 4574
4536 3 4575 4576
4537 4 4572 4577
4538 1 4578 4584
4539 2 4578 4579
4540 2 4581 4584
4541 3 4579 4580
4542 3 4581 4582
4543 4 4578 4583
4544 1 4584 4590
4545 2 4584 4585
4546 2 4587 4590
4547 3 4585 4586
4548 3 4587 4588
4549 4 4584 4589
4550 1 4590 4596
4551 2 4590 4591
4552 2 4593 4596
4553 3 4591 4592
4554 3 4593 4594
4555 4 4590 4595
4556 1 4596 4602
4557 2 4596 4597
4558 2 4599 4602
4559 3 4597 4598
4560 3 4599 4600
4561 4 4596 4601
4562 1 4602 4608
4563 2 4602 4603
4564 2 4605 4608
4565 3 4603 4604
4566 3 4605 4606
4567 4 4602 4607
4568 1 4608 4614
4569 2 4608 4609
4570 2 4611 4614
4571 3 4609 4610
4572 3 4611 4612
4573 4 4608 4613
4574 1 4614 4620
4575 2 4614 4615
4576 2 4617 4620
4577 3 4615 4616
4578 3 4617 4618
4579 4 4614 4619
4580 1 4620 4626
4581 2 4620 4621
4582 2 4623 4626
4583 3 4621 4622
4584 3 4623 4624
4585 4 4620 4625
4586 1 4626 4632
4587 2 4626 4627
4588 2 4629 4632
4589 3 4627 4628
4590 3 4629 4630
4591 4 4626 4631
4592 1 4632 4638
4593 2 4632 4633
4594 2 4635 4638
4595 3 4633 4634
4596 3 4635 4636
4597 4 4632 4637
4598 1 4638 4644
4599 2 4638 4639
4600 2 4641 4644
4601 3 4639 4640
4602 3 4641 4642
4603 4 4638 4643
4604 1 4644 4650
4605 2 4644 4645
4606 2 4647 4650
4607 3 4645 4646
4608 3 4647 4648
4609 4 4644 4649
4610 1 4650 4656
4611 2 4650 4651
4612 2 4653 4656
4613 3 4651 4652
4614 3 4653 4654
4615 4 4650 4655
4616 1 4656 4662
4617 2 4656 4657
4618 2 4659 4662
4619 3 4657 4658
4620 3 4659 4660
4621 4 4656 4661
4622 1 4662 4668
4623 2 4662 4663
4624 2 4665 4668
4625 3 4663 4664
4626 3 4665 4666
4627 4 4662 4667
4628 1 4668 4674
4629 2 4668 4669
4630 2 4671 4674
4631 3 4669 4670
4632 3 4671 4672
4633 4 4668 4673
4634 1 4675 4680
4635 2 4675 4676
4636 2 4678 4680
4637 3 4676 4677
4638 3 4678 4679
4639 1 4680 4686
4640 2 4680 4681
4641 2 4683 4686
4642 3 4681 4682
4643 3 4683 4684
4644 4 4680 4685
4645 1 4686 4692
4646 2 4686 4687
4647 2 4689 4692
4648 3 4687 4688
4649 3 4689 4690
4650 4 4686 4691
4651 1 4692 4698
4652 2 4692 4693
4653 2 4695 4698
4654 3 4693 4694
4655 3 4695 4696
4656 4 4692 4697
4657 1 4698 4704
4658 2 4698 4699
4659 2 4701 4704
4660 3 4699 4700
4661 3 4701 4702
4662 4 4698 4703
4663 1 4704 4710
4664 2 4704 4705
4665 2 4707 4710
4666 3 4705 4706
4667 3 4707 4708
4668 4 4704 4709
4669 1 4710 4716
4670 2 4710 4711
4671 2 4713 4716
4672 3 4711 4712
4673 3 4713 4714
4674 4 4710 4715
4675 1 4716 4722
4676 2 4716 4717
4677 2 4719 4722
4678 3 4717 4718
4679 3 4719 4720
4680 4 4716 4721
4681 1 4722 4728
4682 2 4722 4723
4683 2 4725 4728
4684 3 4723 4724
4685 3 4725 4726
4686 4 4722 4727
4687 1 4728 4734
4688 2 4728 4729
4689 2 4731 4734
4690 3 4729 4730
4691 3 4731 4732
4692 4 4728 4733
4693 1 4734 4740
4694 2 4734 4735
4695 2 4737 4740
4696 3 4735 4736
4697 3 4737 4738
4698 4 4734 4739
4699 1 4740 4746
4700 2 4740 4741
4701 2 4743 4746
4702 3 4741 4742
4703 3 4743 4744
4704 4 4740 4745
4705 1 4746 4752
4706 2 4746 4747
4707 2 4749 4752
4708 3 4747 4748
4709 3 4749 4750
4710 4 4746 4751
4711 1 4752 4758
4712 2 4752 4753
4713 2 4755 4758
4714 3 4753 4754
4715 3 4755 4756
4716 4 4752 4757
4717 1 4758 4764
4718 2 4758 4759
4719 2 4761 4764
4720 3 4759 4760
4721 3 4761 4762
4722 4 4758 4763
4723 1 4764 4770
4724 2 4764 4765
4725 2 4767 4770
4726 3 4765 4766
4727 3 4767 4768
4728 4 4764 4769
4729 1 4770 4776
4730 2 4770 4771
4731 2 4773 4776
4732 3 4771 4772
4733 3 4773 4774
4734 4 4770 4775
4735 1 4776 4782
4736 2 4776 4777
4737 2 4779 4782
4738 3 4777 4778
4739 3 4779 4780
4740 4 4776 4781
4741 1 4782 4788
4742 2 4782 4783
4743 2 4785 4788
4744 3 4783 4784
4745 3 4785 4786
4746 4 4782 4787
4747 1 4789 4794
4748 2 4789 4790
4749 2 4792 4794
4750 3 4790 4791
4751 3 4792 4793
4752 1 4794 4800
4753 2 4794 4795
4754 2 4797 4800
4755 3 4795 4796
4756 3 4797 4798
4757 4 4794 4799
4758 1 4800 4806
4759 2 4800 4801
4760 2 4803 4806
4761 3 4801 4802
4762 3 4803 4804
4763 4 4800 4805
4764 1 4806 4812
4765 2 4806 4807
4766 2 4809 4812
4767 3 4807 4808
4768 3 4809 4810
4769 4 4806 4811
4770 1 4812 4818
4771 2 4812 4813
4772 2 4815 4818
4773 3 4813 4814
4774 3 4815 4816
4775 4 4812 4817
4776 1 4818 4824
4777 2 4818 4819
4778 2 4821 4824
4779 3 4819 4820
4780 3 4821 4822
4781 4 4818 4823
4782 1 4824 4830
4783 2 4824 4825
4784 2 4827 4830
4785 3 4825 4826
4786 3 4827 4828
4787 4 4824 4829
4788 1 4830 4836
4789 2 4830 4831
4790 2 4833 4836
4791 3 4831 4832
4792 3 4833 4834
4793 4 4830 4835
4794 1 4836 4842
4795 2 4836 4837
4796 2 4839 4842
4797 3 4837 4838
4798 3 4839 4840
4799 4 4836 4841
4800 1 4842 4848
4801 2 4842 4843
4802 2 4845 4848
4803 3 4843 4844
4804 3 4845 4846
4805 4 4842 4847
4806 1 4848 4854
4807 2 4848 4849
4808 2 4851 4854
4809 3 4849 4850
4810 3 4851 4852
4811 4 4848 4853
4812 1 4854 4860
4813 2 4854 4855
4814 2 4857 4860
4815 3 4855 4856
4816 3 4857 4858
4817 4 4854 4859
4818 1 4860 4866
4819 2 4860 4861
4820 2 4863 4866
4821 3 4861 4862
4822 3 4863 4864
4823 4 4860 4865
4824 1 4866 4872
4825 2 4866 4867
4826 2 4869 4872
4827 3 4867 4868
4828 3 4869 4870
4829 4 4866 4871
4830 1 4872 4878
4831 2 4872 4873
4832 2 4875 4878
4833 3 4873 4874
4834 3 4875 4876
4835 4 4872 4877
4836 1 4878 4884
4837 2 4878 4879
4838 2 4881 4884
4839 3 4879 4880
4840 3 4881 4882
4841 4 4878 4883
4842 1 4884 4890
4843 2 4884 4885
4844 2 4887 4890
4845 3 4885 4886
4846 3 4887 4888
4847 4 4884 4889
4848 1 4890 4896
4849 2 4890 4891
4850 2 4893 4896
4851 3 4891 4892
4852 3 4893 4894
4853 4 4890 4895
4854 1 4896 4902
4855 2 4896 4897
4856 2 4899 4902
4857 3 4897 4898
4858 3 4899 4900
4859 4 4896 4901
4860 1 4903 4908
4861 2 4903 4904
4862 2 4906 4908
4863 3 4904 4905
4864 3 4906 4907
4865 1 4908 4914
4866 2 4908 4909
4867 2 4911 4914
4868 3 4909 4910
4869 3 4911 4912
4870 4 4908 4913
4871 1 4914 4920
4872 2 4914 4915
4873 2 4917 4920
4874 3 4915 4916
4875 3 4917 4918
4876 4 4914 4919
4877 1 4920 4926
4878 2 4920 4921
4879 2 4923 4926
4880 3 4921 4922
4881 3 4923 4924
4882 4 4920 4925
4883 1 4926 4932
4884 2 4926 4927
4885 2 4929 4932
4886 3 4927 4928
4887 3 4929 4930
4888 4 4926 4931
4889 1 4932 4938
4890 2 4932 4933
4891 2 4935 4938
4892 3 4933 4934
4893 3 4935 4936
4894 4 4932 4937
4895 1 4938 4944
4896 2 4938 4939
4897 2 4941 4944
4898 3 4939 4940
4899 3 4941 4942
4900 4 4938 4943
4901 1 4944 4950
4902 2 4944 4945
4903 2 4947 4950
4904 3 4945 4946
4905 3 4947 4948
4906 4 4944 4949
4907 1 4950 4956
4908 2 4950 4951
4909 2 4953 4956
4910 3 4951 4952
4911 3 4953 4954
4912 4 4950 4955
4913 1 4956 4962
4914 2 4956 4957
4915 2 4959 4962
4916 3 4957 4958
4917 3 4959 4960
4918 4 4956 4961
4919 1 4962 4968
4920 2 4962 4963
4921 2 4965 4968
4922 3 4963 4964
4923 3 4965 4966
4924 4 4962 4967
4925 1 4968 4974
4926 2 4968 4969
4927 2 4971 4974
4928 3 4969 4970
4929 3 4971 4972
4930 4 4968 4973
4931 1 4974 4980
4932 2 4974 4975
4933 2 4977 4980
4934 3 4975 4976
4935 3 4977 4978
4936 4 4974 4979
4937 1 4980 4986
4938 2 4980 4981
4939 2 4983 4986
4940 3 4981 4982
4941 3 4983 4984
4942 4 4980 4985
4943 1 4986 4992
4944 2 4986 4987
4945 2 4989 4992
4946 3 4987 4988
4947 3 4989 4990
4948 4 4986 4991
4949 1 4992 4998
4950 2 4992 4993
4951 2 4995 4998
4952 3 4993 4994
4953 3 4995 4996
4954 4 4992 4997
4955 1 4998 5004
4956 2 4998 4999
4957 2 5001 5004
4958 3 4999 5000
4959 3 5001 5002
4960 4 4998 5003
4961 1 5004 5010
4962 2 5004 5005
4963 2 5007 5010
4964 3 5005 5006
4965 3 5007 5008
4966 4 5004 5009
4967 1 5010 5016
4968 2 5010 5011
4969 2 5013 5016
4970 3 5011 5012
4971 3 5013 5014
4972 4 5010 5015
4973 1 5017 5022
4974 2 5017 5018
4975 2 5020 5022
4976 3 5018 5019
4977 3 5020 5021
4978 1 5022 5028
4979 2 5022 5023
4980 2 5025 5028
4981 3 5023 5024
4982 3 5025 5026
4983 4 5022 5027
4984 1 5028 5034
4985 2 5028 5029
4986 2 5031 5034
4987 3 5029 5030
4988 3 5031 5032
4989 4 5028 5033
4990 1 5034 5040
4991 2 5034 5035
4992 2 5037 5040
4993 3 5035 5036
4994 3 5037 5038
4995 4 5034 5039
4996 1 5040 5046
4997 2 5040 5041
4998 2 5043 5046
4999 3 5041 5042
5000 3 5043 5044
5001 4 5040 5045
5002 1 5046 5052
5003 2 5046 5047
5004 2 5049 5052
5005 3 5047 5048
5006 3 5049 5050
5007 4 5046 5051
5008 1 5052 5058
5009 2 5052 5053
5010 2 5055 5058
5011 3 5053 5054
5012 3 5055 5056
5013 4 5052 5057
5014 1 5058 5064
5015 2 5058 5059
5016 2 5061 5064
5017 3 5059 5060
5018 3 5061 5062
5019 4 5058 5063
5020 1 5064 5070
5021 2 5064 5065
5022 2 5067 5070
5023 3 5065 5066
5024 3 5067 5068
5025 4 5064 5069
5026 1 5070 5076
5027 2 5070 5071
5028 2 5073 5076
5029 3 5071 5072
5030 3 5073 5074
5031 4 5070 5075
5032 1 5076 5082
5033 2 5076 5077
5034 2 5079 5082
5035 3 5077 5078
5036 3 5079 5080
5037 4 5076 5081
5038 1 5082 5088
5039 2 5082 5083
5040 2 5085 5088
5041 3 5083 5084
5042 3 5085 5086
5043 4 5082 5087
5044 1 5088 5094
5045 2 5088 5089
5046 2 5091 5094
5047 3 5089 5090
5048 3 5091 5092
5049 4 5088 5093
5050 1 5094 5100
5051 2 5094 5095
5052 2 5097 5100
5053 3 5095 5096
5054 3 5097 5098
5055 4 5094 5099
5056 1 5100 5106
5057 2 5100 5101
5058 2 5103 5106
5059 3 5101 5102
5060 3 5103 5104
5061 4 5100 5105
5062 1 5106 5112
5063 2 5106 5107
5064 2 5109 5112
5065 3 5107 5108
5066 3 5109 5110
5067 4 5106 5111
5068 1 5112 5118
5069 2 5112 5113
5070 2 5115 5118
5071 3 5113 5114
5072 3 5115 5116
5073 4 5112 5117
5074 1 5118 5124
5075 2 5118 5119
5076 2 5121 5124
5077 3 5119 5120
5078 3 5121 5122
5079 4 5118 5123
5080 1 5124 5130
5081 2 5124 5125
5082 2 5127 5130
5083 3 5125 5126
5084 3 5127 5128
5085 4 5124 5129
5086 1 5131 5136
5087 2 5131 5132
5088 2 5134 5136
5089 3 5132 5133
5090 3 5134 5135
5091 1 5136 5142
5092 2 5136 5137
5093 2 5139 5142
5094 3 5137 5138
5095 3 5139 5140
5096 4 5136 5141
5097 1 5142 5148
5098 2 5142 5143
5099 2 5145 5148
5100 3 5143 5144
5101 3 5145 5146
5102 4 5142 5147
5103 1 5148 5154
5104 2 5148 5149
5105 2 5151 5154
5106 3 5149 5150
5107 3 5151 5152
5108 4 5148 5153
5109 1 5154 5160
5110 2 5154 5155
5111 2 5157 5160
5112 3 5155 5156
5113 3 5157 5158
5114 4 5154 5159
5115 1 5160 5166
5116 2 5160 5161
5117 2 5163 5166
5118 3 5161 5162
5119 3 5163 5164
5120 4 5160 5165
5121 1 5166 5172
5122 2 5166 5167
5123 2 5169 5172
5124 3 5167 5168
5125 3 5169 5170
5126 4 5166 5171
5127 1 5172 5178
5128 2 5172 5173
5129 2 5175 5178
5130 3 5173 5174
5131 3 5175 5176
5132 4 5172 5177
5133 1 5178 5184
5134 2 5178 5179
5135 2 5181 5184
5136 3 5179 5180
5137 3 5181 5182
5138 4 5178 5183
5139 1 5184 5190
5140 2 5184 5185
5141 2 5187 5190
5142 3 5185 5186
5143 3 5187 5188
5144 4 5184 5189
5145 1 5190 5196
5146 2 5190 5191
5147 2 5193 5196
5148 3 5191 5192
5149 3 5193 5194
5150 4 5190 5195
5151 1 5196 5202
5152 2 5196 5197
5153 2 5199 5202
5154 3 5197 5198
5155 3 5199 5200
5156 4 5196 5201
5157 1 5202 5208
5158 2 5202 5203
5159 2 5205 5208
5160 3 5203 5204
5161 3 5205 5206
5162 4 5202 5207
5163 1 5208 5214
5164 2 5208 5209
5165 2 5211 5214
5166 3 5209 5210
5167 3 5211 5212
5168 4 5208 5213
5169 1 5214 5220
5170 2 5214 5215
5171 2 5217 5220
5172 3 5215 5216
5173 3 5217 5218
5174 4 5214 5219
5175 1 5220 5226
5176 2 5220 5221
5177 2 5223 5226
5178 3 5221 5222
5179 3 5223 5224
5180 4 5220 5225
5181 1 5226 5232
5182 2 5226 5227
5183 2 5229 5232
5184 3 5227 5228
5185 3 5229 5230
5186 4 5226 5231
5187 1 5232 5238
5188 2 5232 5233
5189 2 5235 5238
5190 3 5233 5234
5191 3 5235 5236
5192 4 5232 5237
5193 1 5238 5244
5194 2 5238 5239
5195 2 5241 5244
5196 3 5239 5240
5197 3 5241 5242
5198 4 5238 5243
5199 1 5245 5250
5200 2 5245 5246
5201 2 5248 5250
5202 3 5246 5247
5203 3 5248 5249
5204 1 5250 5256
5205 2 5250 5251
5206 2 5253 5256
5207 3 5251 5252
5208 3 5253 5254
5209 4 5250 5255
5210 1 5256 5262
5211 2 5256 5257
5212 2 5259 5262
5213 3 5257 5258
5214 3 5259 5260
5215 4 5256 5261
5216 1 5262 5268
5217 2 5262 5263
5218 2 5265 5268
5219 3 5263 5264
5220 3 5265 5266
5221 4 5262 5267
5222 1 5268 5274
5223 2 5268 5269
5224 2 5271 5274
5225 3 5269 5270
5226 3 5271 5272
5227 4 5268 5273
5228 1 5274 5280
5229 2 5274 5275
5230 2 5277 5280
5231 3 5275 5276
5232 3 5277 5278
5233 4 5274 5279
5234 1 5280 5286
5235 2 5280 5281
5236 2 5283 5286
5237 3 5281 5282
5238 3 5283 5284
5239 4 5280 5285
5240 1 5286 5292
5241 2 5286 5287
5242 2 5289 5292
5243 3 5287 5288
5244 3 5289 5290
5245 4 5286 5291
5246 1 5292 5298
5247 2 5292 5293
5248 2 5295 5298
5249 3 5293 5294
5250 3 5295 5296
5251 4 5292 5297
5252 1 5298 5304
5253 2 5298 5299
5254 2 5301 5304
5255 3 5299 5300
5256 3 5301 5302
5257 4 5298 5303
5258 1 5304 5310
5259 2 5304 5305
5260 2 5307 5310
5261 3 5305 5306
5262 3 5307 5308
5263 4 5304 5309
5264 1 5310 5316
5265 2 5310 5311
5266 2 5313 5316
5267 3 5311 5312
5268 3 5313 5314
5269 4 5310 5315
5270 1 5316 5322
5271 2 5316 5317
5272 2 5319 5322
5273 3 5317 5318
5274 3 5319 5320
5275 4 5316 5321
5276 1 5322 5328
5277 2 5322 5323
5278 2 5325 5328
5279 3 5323 5324
5280 3 5325 5326
5281 4 5322 5327
5282 1 5328 5334
5283 2 5328 5329
5284 2 5331 5334
5285 3 5329 5330
5286 3 5331 5332
5287 4 5328 5333
5288 1 5334 5340
5289 2 5334 5335
5290 2 5337 5340
5291 3 5335 5336
5292 3 5337 5338
5293 4 5334 5339
5294 1 5340 5346
5295 2 5340 5341
5296 2 5343 5346
5297 3 5341 5342
5298 3 5343 5344
5299 4 5340 5345
5300 1 5346 5352
5301 2 5346 5347
5302 2 5349 5352
5303 3 5347 5348
5304 3 5349 5350
5305 4 5346 5351
5306 1 5352 5358
5307 2 5352 5353
5308 2 5355 5358
5309 3 5353 5354
5310 3 5355 5356
5311 4 5352 5357
5312 1 5359 5364
5313 2 5359 5360
5314 2 5362 5364
5315 3 5360 5361
5316 3 5362 5363
5317 1 5364 5370
5318 2 5364 5365
5319 2 5367 5370
5320 3 5365 5366
5321 3 5367 5368
5322 4 5364 5369
5323 1 5370 5376
5324 2 5370 5371
5325 2 5373 5376
5326 3 5371 5372
5327 3 5373 5374
5328 4 5370 5375
5329 1 5376 5382
5330 2 5376 5377
5331 2 5379 5382
5332 3 5377 5378
5333 3 5379 5380
5334 4 5376 5381
5335 1 5382 5388
5336 2 5382 5383
5337 2 5385 5388
5338 3 5383 5384
5339 3 5385 5386
5340 4 5382 5387
5341 1 5388 5394
5342 2 5388 5389
5343 2 5391 5394
5344 3 5389 5390
5345 3 5391 5392
5346 4 5388 5393
5347 1 5394 5400
5348 2 5394 5395
5349 2 5397 5400
5350 3 5395 5396
5351 3 5397 5398
5352 4 5394 5399
5353 1 5400 5406
5354 2 5400 5401
5355 2 5403 5406
5356 3 5401 5402
5357 3 5403 5404
5358 4 5400 5405
5359 1 5406 5412
5360 2 5406 5407
5361 2 5409 5412
5362 3 5407 5408
5363 3 5409 5410
5364 4 5406 5411
5365 1 5412 5418
5366 2 5412 5413
5367 2 5415 5418
5368 3 5413 5414
5369 3 5415 5416
5370 4 5412 5417
5371 1 5418 5424
5372 2 5418 5419
5373 2 5421 5424
5374 3 5419 5420
5375 3 5421 5422
5376 4 5418 5423
5377 1 5424 5430
5378 2 5424 5425
5379 2 5427 5430
5380 3 5425 5426
5381 3 5427 5428
5382 4 5424 5429
5383 1 5430 5436
5384 2 5430 5431
5385 2 5433 5436
5386 3 5431 5432
5387 3 5433 5434
5388 4 5430 5435
5389 1 5436 5442
5390 2 5436 5437
5391 2 5439 5442
5392 3 5437 5438
5393 3 5439 5440
5394 4 5436 5441
5395 1 5442 5448
5396 2 5442 5443
5397 2 5445 5448
5398 3 5443 5444
5399 3 5445 5446
5400 4 5442 5447
5401 1 5448 5454
5402 2 5448 5449
5403 2 5451 5454
5404 3 5449 5450
5405 3 5451 5452
5406 4 5448 5453
5407 1 5454 5460
5408 2 5454 5455
5409 2 5457 5460
5410 3 5455 5456
5411 3 5457 5458
5412 4 5454 5459
5413 1 5460 5466
5414 2 5460 5461
5415 2 5463 5466
5416 3 5461 5462
5417 3 5463 5464
5418 4 5460 5465
5419 1 5466 5472
5420 2 5466 5467
5421 2 5469 5472
5422 3 5467 5468
5423 3 5469 5470
5424 4 5466 5471
5425 1 5473 5478
5426 2 5473 5474
5427 2 5476 5478
5428 3 5474 5475
5429 3 5476 5477
5430 1 5478 5484
5431 2 5478 5479
5432 2 5481 5484
5433 3 5479 5480
5434 3 5481 5482
5435 4 5478 5483
5436 1 5484 5490
5437 2 5484 5485
5438 2 5487 5490
5439 3 5485 5486
5440 3 5487 5488
5441 4 5484 5489
5442 1 5490 5496
5443 2 5490 5491
5444 2 5493 5496
5445 3 5491 5492
5446 3 5493 5494
5447 4 5490 5495
5448 1 5496 5502
5449 2 5496 5497
5450 2 5499 5502
5451 3 5497 5498
5452 3 5499 5500
5453 4 5496 5501
5454 1 5502 5508
5455 2 5502 5503
5456 2 5505 5508
5457 3 5503 5504
5458 3 5505 5506
5459 4 5502 5507
5460 1 5508 5514
5461 2 5508 5509
5462 2 5511 5514
5463 3 5509 5510
5464 3 5511 5512
5465 4 5508 5513
5466 1 5514 5520
5467 2 5514 5515
5468 2 5517 5520
5469 3 5515 5516
5470 3 5517 5518
5471 4 5514 5519
5472 1 5520 5526
5473 2 5520 5521
5474 2 5523 5526
5475 3 5521 5522
5476 3 5523 5524
5477 4 5520 5525
5478 1 5526 5532
5479 2 5526 5527
5480 2 5529 5532
5481 3 5527 5528
5482 3 5529 5530
5483 4 5526 5531
5484 1 5532 5538
5485 2 5532 5533
5486 2 5535 5538
5487 3 5533 5534
5488 3 5535 5536
5489 4 5532 5537
5490 1 5538 5544
5491 2 5538 5539
5492 2 5541 5544
5493 3 5539 5540
5494 3 5541 5542
5495 4 5538 5543
5496 1 5544 5550
5497 2 5544 5545
5498 2 5547 5550
5499 3 5545 5546
5500 3 5547 5548
5501 4 5544 5549
5502 1 5550 5556
5503 2 5550 5551
5504 2 5553 5556
5505 3 5551 5552
5506 3 5553 5554
5507 4 5550 5555
5508 1 5556 5562
5509 2 5556 5557
5510 2 5559 5562
5511 3 5557 5558
5512 3 5559 5560
5513 4 5556 5561
5514 1 5562 5568
5515 2 5562 5563
5516 2 5565 5568
5517 3 5563 5564
5518 3 5565 5566
5519 4 5562 5567
5520 1 5568 5574
5521 2 5568 5569
5522 2 5571 5574
5523 3 5569 5570
5524 3 5571 5572
5525 4 5568 5573
5526 1 5574 5580
5527 2 5574 5575
5528 2 5577 5580
5529 3 5575 5576
5530 3 5577 5578
5531 4 5574 5579
5532 1 5580 5586
5533 2 5580 5581
5534 2 5583 5586
5535 3 5581 5582
5536 3 5583 5584
5537 4 5580 5585

 Angles

1 1 1 2 6
2 1 1 4 6
3 2 1 2 3
4 2 1 4 5
5 2 3 2 12
6 2 5 4 12
7 3 1 6 12
8 1 6 7 12
9 1 6 9 12
10 2 6 7 8
11 2 6 9 10
12 3 1 6 11
13 3 12 6 11
14 2 8 7 18
15 2 10 9 18
16 3 6 12 18
17 1 12 13 18
18 1 12 15 18
19 2 12 13 14
20 2 12 15 16
21 3 6 12 17
22 3 18 12 17
23 2 14 13 24
24 2 16 15 24
25 3 12 18 24
26 1 18 19 24
27 1 18 21 24
28 2 18 19 20
29 2 18 21 22
30 3 12 18 23
31 3 24 18 23
32 2 20 19 30
33 2 22 21 30
34 3 18 24 30
35 1 24 25 30
36 1 24 27 30
37 2 24 25 26
38 2 24 27 28
39 3 18 24 29
40 3 30 24 29
41 2 26 25 36
42 2 28 27 36
43 3 24 30 36
44 1 30 31 36
45 1 30 33 36
46 2 30 31 32
47 2 30 33 34
48 3 24 30 35
49 3 36 30 35
50 2 32 31 42
51 2 34 33 42
52 3 30 36 42
53 1 36 37 42
54 1 36 39 42
55 2 36 37 38
56 2 36 39 40
57 3 30 36 41
58 3 42 36 41
59 2 38 37 48
60 2 40 39 48
61 3 36 42 48
62 1 42 43 48
63 1 42 45 48
64 2 42 43 44
65 2 42 45 46
66 3 36 42 47
67 3 48 42 47
68 2 44 43 54
69 2 46 45 54
70 3 42 48 54
71 1 48 49 54
72 1 48 51 54
73 2 48 49 50
74 2 48 51 52
75 3 42 48 53
76 3 54 48 53
77 2 50 49 60
78 2 52 51 60
79 3 48 54 60
80 1 54 55 60
81 1 54 57 60
82 2 54 55 56
83 2 54 57 58
84 3 48 54 59
85 3 60 54 59
86 2 56 55 66
87 2 58 57 66
88 3 54 60 66
89 1 60 61 66
90 1 60 63 66
91 2 60 61 62
92 2 60 63 64
93 3 54 60 65
94 3 66 60 65
95 2 62 61 72
96 2 64 63 72
97 3 60 66 72
98 1 66 67 72
99 1 66 69 72
100 2 66 67 68
101 2 66 69 70
102 3 60 66 71
103 3 72 66 71
104 2 68 67 78
105 2 70 69 78
106 3 66 72 78
107 1 72 73 78
108 1 72 75 78
109 2 72 73 74
110 2 72 75 76
111 3 66 72 77
112 3 78 72 77
113 2 74 73 84
114 2 76 75 84
115 3 72 78 84
116 1 78 79 84
117 1 78 81 84
118 2 78 79 80
119 2 78 81 82
120 3 72 78 83
121 3 84 78 83
122 2 80 79 90
123 2 82 81 90
124 3 78 84 90
125 1 84 85 90
126 1 84 87 90
127 2 84 85 86
128 2 84 87 88
129 3 78 84 89
130 3 90 84 89
131 2 86 85 96
132 2 88 87 96
133 3 84 90 96
134 1 90 91 96
135 1 90 93 96
136 2 90 91 92
137 2 90 93 94
138 3 84 90 95
139 3 96 90 95
140 2 92 91 102
141 2 94 93 102
142 3 90 96 102
143 1 96 97 102
144 1 96 99 102
145 2 96 97 98
146 2 96 99 100
147 3 90 96 101
148 3 102 96 101
149 2 98 97 108
150 2 100 99 108
151 3 96 102 108
152 1 102 103 108
153 1 102 105 108
154 2 102 103 104
155 2 102 105 106
156 3 96 102 107
157 3 108 102 107
158 2 104 103 114
159 2 106 105 114
160 3 102 108 114
161 1 108 109 114
162 1 108 111 114
163 2 108 109 110
164 2 108 111 112
165 3 102 108 113
166 3 114 108 113
167 1 115 116 120
168 1 115 118 120
169 2 115 116 117
170 2 115 118 119
171 2 117 116 126
172 2 119 118 126
173 3 115 120 126
174 1 120 121 126
175 1 120 123 126
176 2 120 121 122
177 2 120 123 124
178 3 115 120 125
179 3 126 120 125
180 2 122 121 132
181 2 124 123 132
182 3 120 126 132
183 1 126 127 132
184 1 126 129 132
185 2 126 127 128
186 2 126 129 130
187 3 120 126 131
188 3 132 126 131
189 2 128 127 138
190 2 130 129 138
191 3 126 132 138
192 1 132 133 138
193 1 132 135 138
194 2 132 133 134
195 2 132 135 136
196 3 126 132 137
197 3 138 132 137
198 2 134 133 144
199 2 136 135 144
200 3 132 138 144
201 1 138 139 144
202 1 138 141 144
203 2 138 139 140
204 2 138 141 142
205 3 132 138 143
206 3 144 138 143
207 2 140 139 150
208 2 142 141 150
209 3 138 144 150
210 1 144 145 150
211 1 144 147 150
212 2 144 145 146
213 2 144 147 148
214 3 138 144 149
215 3 150 144 149
216 2 146 145 156
217 2 148 147 156
218 3 144 150 156
219 1 150 151 156
220 1 150 153 156
221 2 150 151 152
222 2 150 153 154
223 3 144 150 155
224 3 156 150 155
225 2 152 151 162
226 2 154 153 162
227 3 150 156 162
228 1 156 157 162
229 1 156 159 162
230 2 156 157 158
231 2 156 159 160
232 3 150 156 161
233 3 162 156 161
234 2 158 157 168
235 2 160 159 168
236 3 156 162 168
237 1 162 163 168
238 1 162 165 168
239 2 162 163 164
240 2 162 165 166
241 3 156 162 167
242 3 168 162 167
243 2 164 163 174
244 2 166 165 174
245 3 162 168 174
246 1 168 169 174
247 1 168 171 174
248 2 168 169 170
249 2 168 171 172
250 3 162 168 173
251 3 174 168 173
252 2 170 169 180
253 2 172 171 180
254 3 168 174 180
255 1 174 175 180
256 1 174 177 180
257 2 174 175 176
258 2 174 177 178
259 3 168 174 179
260 3 180 174 179
261 2 176 175 186
262 2 178 177 186
263 3 174 180 186
264 1 180 181 186
265 1 180 183 186
266 2 180 181 182
267 2 180 183 184
268 3 174 180 185
269 3 186 180 185
270 2 182 181 192
271 2 184 183 192
272 3 180 186 192
273 1 186 187 192
274 1 186 189 192
275 2 186 187 188
276 2 186 189 190
277 3 180 186 191
278 3 192 186 191
279 2 188 187 198
280 2 190 189 198
281 3 186 192 198
282 1 192 193 198
283 1 192 195 198
284 2 192 193 194
285 2 192 195 196
286 3 186 192 197
287 3 198 192 197
288 2 194 193 204
289 2 196 195 204
290 3 192 198 204
291 1 198 199 204
292 1 198 201 204
293 2 198 199 200
294 2 198 201 202
295 3 192 198 203
296 3 204 198 203
297 2 200 199 210
298 2 202 201 210
299 3 198 204 210
300 1 204 205 210
301 1 204 207 210
302 2 204 205 206
303 2 204 207 208
304 3 198 204 209
305 3 210 204 209
306 2 206 205 216
307 2 208 207 216
308 3 204 210 216
309 1 210 211 216
310 1 210 213 216
311 2 210 211 212
312 2 210 213 214
313 3 204 210 215
314 3 216 210 215
315 2 212 211 222
316 2 214 213 222
317 3 210 216 222
318 1 216 217 222
319 1 216 219 222
320 2 216 217 218
321 2 216 219 220
322 3 210 216 221
323 3 222 216 221
324 2 218 217 228
325 2 220 219 228
326 3 216 222 228
327 1 222 223 228
328 1 222 225 228
329 2 222 223 224
330 2 222 225 226
331 3 216 222 227
332 3 228 222 227
333 1 229 230 234
334 1 229 232 234
335 2 229 230 231
336 2 229 232 233
337 2 231 230 240
338 2 233 232 240
339 3 229 234 240
340 1 234 235 240
341 1 234 237 240
342 2 234 235 236
343 2 234 237 238
344 3 229 234 239
345 3 240 234 239
346 2 236 235 246
347 2 238 237 246
348 3 234 240 246
349 1 240 241 246
350 1 240 243 246
351 2 240 241 242
352 2 240 243 244
353 3 234 240 245
354 3 246 240 245
355 2 242 241 252
356 2 244 243 252
357 3 240 246 252
358 1 246 247 252
359 1 246 249 252
360 2 246 247 248
361 2 246 249 250
362 3 240 246 251
363 3 252 246 251
364 2 248 247 258
365 2 250 249 258
366 3 246 252 258
367 1 252 253 258
368 1 252 255 258
369 2 252 253 254
370 2 252 255 256
371 3 246 252 257
372 3 258 252 257
373 2 254 253 264
374 2 256 255 264
375 3 252 258 264
376 1 258 259 264
377 1 258 261 264
378 2 258 259 260
379 2 258 261 262
380 3 252 258 263
381 3 264 258 263
382 2 260 259 270
383 2 262 261 270
384 3 258 264 270
385 1 264 265 270
386 1 264 267 270
387 2 264 265 266
388 2 264 267 268
389 3 258 264 269
390 3 270 264 269
391 2 266 265 276
392 2 268 267 276
393 3 264 270 276
394 1 270 271 276
395 1 270 273 276
396 2 270 271 272
397 2 270 273 274
398 3 264 270 275
399 3 276 270 275
400 2 272 271 282
401 2 274 273 282
402 3 270 276 282
403 1 276 277 282
404 1 276 279 282
405 2 276 277 278
406 2 276 279 280
407 3 270 276 281
408 3 282 276 281
409 2 278 277 288
410 2 280 279 288
411 3 276 282 288
412 1 282 283 288
413 1 282 285 288
414 2 282 283 284
415 2 282 285 286
416 3 276 282 287
417 3 288 282 287
418 2 284 283 294
419 2 286 285 294
420 3 282 288 294
421 1 288 289 294
422 1 288 291 294
423 2 288 289 290
424 2 288 291 292
425 3 282 288 293
426 3 294 288 293
427 2 290 289 300
428 2 292 291 300
429 3 288 294 300
430 1 294 295 300
431 1 294 297 300
432 2 294 295 296
433 2 294 297 298
434 3 288 294 299
435 3 300 294 299
436 2 296 295 306
437 2 298 297 306
438 3 294 300 306
439 1 300 301 306
440 1 300 303 306
441 2 300 301 302
442 2 300 303 304
443 3 294 300 305
444 3 306 300 305
445 2 302 301 312
446 2 304 303 312
447 3 300 306 312
448 1 306 307 312
449 1 306 309 312
450 2 306 307 308
451 2 306 309 310
452 3 300 306 311
453 3 312 306 311
454 2 308 307 318
455 2 310 309 318
456 3 306 312 318
457 1 312 313 318
458 1 312 315 318
459 2 312 313 314
460 2 312 315 316
461 3 306 312 317
462 3 318 312 317
463 2 314 313 324
464 2 316 315 324
465 3 312 318 324
466 1 318 319 324
467 1 318 321 324
468 2 318 319 320
469 2 318 321 322
470 3 312 318 323
471 3 324 318 323
472 2 320 319 330
473 2 322 321 330
474 3 318 324 330
475 1 324 325 330
476 1 324 327 330
477 2 324 325 326
478 2 324 327 328
479 3 318 324 329
480 3 330 324 329
481 2 326 325 336
482 2 328 327 336
483 3 324 330 336
484 1 330 331 336
485 1 330 333 336
486 2 330 331 332
487 2 330 333 334
488 3 324 330 335
489 3 336 330 335
490 2 332 331 342
491 2 334 333 342
492 3 330 336 342
493 1 336 337 342
494 1 336 339 342
495 2 336 337 338
496 2 336 339 340
497 3 330 336 341
498 3 342 336 341
499 1 343 344 348
500 1 343 346 348
501 2 343 344 345
502 2 343 346 347
503 2 345 344 354
504 2 347 346 354
505 3 343 348 354
506 1 348 349 354
507 1 348 351 354
508 2 348 349 350
509 2 348 351 352
510 3 343 348 353
511 3 354 348 353
512 2 350 349 360
513 2 352 351 360
514 3 348 354 360
515 1 354 355 360
516 1 354 357 360
517 2 354 355 356
518 2 354 357 358
519 3 348 354 359
520 3 360 354 359
521 2 356 355 366
522 2 358 357 366
523 3 354 360 366
524 1 360 361 366
525 1 360 363 366
526 2 360 361 362
527 2 360 363 364
528 3 354 360 365
529 3 366 360 365
530 2 362 361 372
531 2 364 363 372
532 3 360 366 372
533 1 366 367 372
534 1 366 369 372
535 2 366 367 368
536 2 366 369 370
537 3 360 366 371
538 3 372 366 371
539 2 368 367 378
540 2 370 369 378
541 3 366 372 378
542 1 372 373 378
543 1 372 375 378
544 2 372 373 374
545 2 372 375 376
546 3 366 372 377
547 3 378 372 377
548 2 374 373 384
549 2 376 375 384
550 3 372 378 384
551 1 378 379 384
552 1 378 381 384
553 2 378 379 380
554 2 378 381 382
555 3 372 378 383
556 3 384 378 383
557 2 380 379 390
558 2 382 381 390
559 3 378 384 390
560 1 384 385 390
561 1 384 387 390
562 2 384 385 386
563 2 384 387 388
564 3 378 384 389
565 3 390 384 389
566 2 386 385 396
567 2 388 387 396
568 3 384 390 396
569 1 390 391 396
570 1 390 393 396
571 2 390 391 392
572 2 390 393 394
573 3 384 390 395
574 3 396 390 395
575 2 392 391 402
576 2 394 393 402
577 3 390 396 402
578 1 396 397 402
579 1 396 399 402
580 2 396 397 398
581 2 396 399 400
582 3 390 396 401
583 3 402 396 401
584 2 398 397 408
585 2 400 399 408
586 3 396 402 408
587 1 402 403 408
588 1 402 405 408
589 2 402 403 404
590 2 402 405 406
591 3 396 402 407
592 3 408 402 407
593 2 404 403 414
594 2 406 405 414
595 3 402 408 414
596 1 408 409 414
597 1 408 411 414
598 2 408 409 410
599 2 408 411 412
600 3 402 408 413
601 3 414 408 413
602 2 410 409 420
603 2 412 411 420
604 3 408 414 420
605 1 414 415 420
606 1 414 417 420
607 2 414 415 416
608 2 414 417 418
609 3 408 414 419
610 3 420 414 419
611 2 416 415 426
612 2 418 417 426
613 3 414 420 426
614 1 420 421 426
615 1 420 423 426
616 2 420 421 422
617 2 420 423 424
618 3 414 420 425
619 3 426 420 425
620 2 422 421 432
621 2 424 423 432
622 3 420 426 432
623 1 426 427 432
624 1 426 429 432
625 2 426 427 428
626 2 426 429 430
627 3 420 426 431
628 3 432 426 431
629 2 428 427 438
630 2 430 429 438
631 3 426 432 438
632 1 432 433 438
633 1 432 435 438
634 2 432 433 434
635 2 432 435 436
636 3 426 432 437
637 3 438 432 437
638 2 434 433 444
639 2 436 435 444
640 3 432 438 444
641 1 438 439 444
642 1 438 441 444
643 2 438 439 440
644 2 438 441 442
645 3 432 438 443
646 3 444 438 443
647 2 440 439 450
648 2 442 441 450
649 3 438 444 450
650 1 444 445 450
651 1 444 447 450
652 2 444 445 446
653 2 444 447 448
654 3 438 444 449
655 3 450 444 449
656 2 446 445 456
657 2 448 447 456
658 3 444 450 456
659 1 450 451 456
660 1 450 453 456
661 2 450 451 452
662 2 450 453 454
663 3 444 450 455
664 3 456 450 455
665 1 457 458 462
666 1 457 460 462
667 2 457 458 459
668 2 457 460 461
669 2 459 458 468
670 2 461 460 468
671 3 457 462 468
672 1 462 463 468
673 1 462 465 468
674 2 462 463 464
675 2 462 465 466
676 3 457 462 467
677 3 468 462 467
678 2 464 463 474
679 2 466 465 474
680 3 462 468 474
681 1 468 469 474
682 1 468 471 474
683 2 468 469 470
684 2 468 471 472
685 3 462 468 473
686 3 474 468 473
687 2 470 469 480
688 2 472 471 480
689 3 468 474 480
690 1 474 475 480
691 1 474 477 480
692 2 474 475 476
693 2 474 477 478
694 3 468 474 479
695 3 480 474 479
696 2 476 475 486
697 2 478 477 486
698 3 474 480 486
699 1 480 481 486
700 1 480 483 486
701 2 480 481 482
702 2 480 483 484
703 3 474 480 485
704 3 486 480 485
705 2 482 481 492
706 2 484 483 492
707 3 480 486 492
708 1 486 487 492
709 1 486 489 492
710 2 486 487 488
711 2 486 489 490
712 3 480 486 491
713 3 492 486 491
714 2 488 487 498
715 2 490 489 498
716 3 486 492 498
717 1 492 493 498
718 1 492 495 498
719 2 492 493 494
720 2 492 495 496
721 3 486 492 497
722 3 498 492 497
723 2 494 493 504
724 2 496 495 504
725 3 492 498 504
726 1 498 499 504
727 1 498 501 504
728 2 498 499 500
729 2 498 501 502
730 3 492 498 503
731 3 504 498 503
732 2 500 499 510
733 2 502 501 510
734 3 498 504 510
735 1 504 505 510
736 1 504 507 510
737 2 504 505 506
738 2 504 507 508
739 3 498 504 509
740 3 510 504 509
741 2 506 505 516
742 2 508 507 516
743 3 504 510 516
744 1 510 511 516
745 1 510 513 516
746 2 510 511 512
747 2 510 513 514
748 3 504 510 515
749 3 516 510 515
750 2 512 511 522
751 2 514 513 522
752 3 510 516 522
753 1 516 517 522
754 1 516 519 522
755 2 516 517 518
756 2 516 519 520
757 3 510 516 521
758 3 522 516 521
759 2 518 517 528
760 2 520 519 528
761 3 516 522 528
762 1 522 523 528
763 1 522 525 528
764 2 522 523 524
765 2 522 525 526
766 3 516 522 527
767 3 528 522 527
768 2 524 523 534
769 2 526 525 534
770 3 522 528 534
771 1 528 529 534
772 1 528 531 534
773 2 528 529 530
774 2 528 531 532
775 3 522 528 533
776 3 534 528 533
777 2 530 529 540
778 2 532 531 540
779 3 528 534 540
780 1 534 535 540
781 1 534 537 540
782 2 534 535 536
783 2 534 537 538
784 3 528 534 539
785 3 540 534 539
786 2 536 535 546
787 2 538 537 546
788 3 534 540 546
789 1 540 541 546
790 1 540 543 546
791 2 540 541 542
792 2 540 543 544
793 3 534 540 545
794 3 546 540 545
795 2 542 541 552
796 2 544 543 552
797 3 540 546 552
798 1 546 547 552
799 1 546 549 552
800 2 546 547 548
801 2 546 549 550
802 3 540 546 551
803 3 552 546 551
804 2 548 547 558
805 2 550 549 558
806 3 546 552 558
807 1 552 553 558
808 1 552 555 558
809 2 552 553 554
810 2 552 555 556
811 3 546 552 557
812 3 558 552 557
813 2 554 553 564
814 2 556 555 564
815 3 552 558 564
816 1 558 559 564
817 1 558 561 564
818 2 558 559 560
819 2 558 561 562
820 3 552 558 563
821 3 564 558 563
822 2 560 559 570
823 2 562 561 570
824 3 558 564 570
825 1 564 565 570
826 1 564 567 570
827 2 564 565 566
828 2 564 567 568
829 3 558 564 569
830 3 570 564 569
831 1 571 572 576
832 1 571 574 576
833 2 571 572 573
834 2 571 574 575
835 2 573 572 582
836 2 575 574 582
837 3 571 576 582
838 1 576 577 582
839 1 576 579 582
840 2 576 577 578
841 2 576 579 580
842 3 571 576 581
843 3 582 576 581
844 2 578 577 588
845 2 580 579 588
846 3 576 582 588
847 1 582 583 588
848 1 582 585 588
849 2 582 583 584
850 2 582 585 586
851 3 576 582 587
852 3 588 582 587
853 2 584 583 594
854 2 586 585 594
855 3 582 588 594
856 1 588 589 594
857 1 588 591 594
858 2 588 589 590
859 2 588 591 592
860 3 582 588 593
861 3 594 588 593
862 2 590 589 600
863 2 592 591 600
864 3 588 594 600
865 1 594 595 600
866 1 594 597 600
867 2 594 595 596
868 2 594 597 598
869 3 588 594 599
870 3 600 594 599
871 2 596 595 606
872 2 598 597 606
873 3 594 600 606
874 1 600 601 606
875 1 600 603 606
876 2 600 601 602
877 2 600 603 604
878 3 594 600 605
879 3 606 600 605
880 2 602 601 612
881 2 604 603 612
882 3 600 606 612
883 1 606 607 612
884 1 606 609 612
885 2 606 607 608
886 2 606 609 610
887 3 600 606 611
888 3 612 606 611
889 2 608 607 618
890 2 610 609 618
891 3 606 612 618
892 1 612 613 618
893 1 612 615 618
894 2 612 613 614
895 2 612 615 616
896 3 606 612 617
897 3 618 612 617
898 2 614 613 624
899 2 616 615 624
900 3 612 618 624
901 1 618 619 624
902 1 618 621 624
903 2 618 619 620
904 2 618 621 622
905 3 612 618 623
906 3 624 618 623
907 2 620 619 630
908 2 622 621 630
909 3 618 624 630
910 1 624 625 630
911 1 624 627 630
912 2 624 625 626
913 2 624 627 628
914 3 618 624 629
915 3 630 624 629
916 2 626 625 636
917 2 628 627 636
918 3 624 630 636
919 1 630 631 636
920 1 630 633 636
921 2 630 631 632
922 2 630 633 634
923 3 624 630 635
924 3 636 630 635
925 2 632 631 642
926 2 634 633 642
927 3 630 636 642
928 1 636 637 642
929 1 636 639 642
930 2 636 637 638
931 2 636 639 640
932 3 630 636 641
933 3 642 636 641
934 2 638 637 648
935 2 640 639 648
936 3 636 642 648
937 1 642 643 648
938 1 642 645 648
939 2 642 643 644
940 2 642 645 646
941 3 636 642 647
942 3 648 642 647
943 2 644 643 654
944 2 646 645 654
945 3 642 648 654
946 1 648 649 654
947 1 648 651 654
948 2 648 649 650
949 2 648 651 652
950 3 642 648 653
951 3 654 648 653
952 2 650 649 660
953 2 652 651 660
954 3 648 654 660
955 1 654 655 660
956 1 654 657 660
957 2 654 655 656
958 2 654 657 658
959 3 648 654 659
960 3 660 654 659
961 2 656 655 666
962 2 658 657 666
963 3 654 660 666
964 1 660 661 666
965 1 660 663 666
966 2 660 661 662
967 2 660 663 664
968 3 654 660 665
969 3 666 660 665
970 2 662 661 672
971 2 664 663 672
972 3 660 666 672
973 1 666 667 672
974 1 666 669 672
975 2 666 667 668
976 2 666 669 670
977 3 660 666 671
978 3 672 666 671
979 2 668 667 678
980 2 670 669 678
981 3 666 672 678
982 1 672 673 678
983 1 672 675 678
984 2 672 673 674
985 2 672 675 676
986 3 666 672 677
987 3 678 672 677
988 2 674 673 684
989 2 676 675 684
990 3 672 678 684
991 1 678 679 684
992 1 678 681 684
993 2 678 679 680
994 2 678 681 682
995 3 672 678 683
996 3 684 678 683
997 1 685 686 690
998 1 685 688 690
999 2 685 686 687
1000 2 685 688 689
1001 2 687 686 696
1002 2 689 688 696
1003 3 685 690 696
1004 1 690 691 696
1005 1 690 693 696
1006 2 690 691 692
1007 2 690 693 694
1008 3 685 690 695
1009 3 696 690 695
1010 2 692 691 702
1011 2 694 693 702
1012 3 690 696 702
1013 1 696 697 702
1014 1 696 699 702
1015 2 696 697 698
1016 2 696 699 700
1017 3 690 696 701
1018 3 702 696 701
1019 2 698 697 708
1020 2 700 699 708
1021 3 696 702 708
1022 1 702 703 708
1023 1 702 705 708
1024 2 702 703 704
1025 2 702 705 706
1026 3 696 702 707
1027 3 708 702 707
1028 2 704 703 714
1029 2 706 705 714
1030 3 702 708 714
1031 1 708 709 714
1032 1 708 711 714
1033 2 708 709 710
1034 2 708 711 712
1035 3 702 708 713
1036 3 714 708 713
1037 2 710 709 720
1038 2 712 711 720
1039 3 708 714 720
1040 1 714 715 720
1041 1 714 717 720
1042 2 714 715 716
1043 2 714 717 718
1044 3 708 714 719
1045 3 720 714 719
1046 2 716 715 726
1047 2 718 717 726
1048 3 714 720 726
1049 1 720 721 726
1050 1 720 723 726
1051 2 720 721 722
1052 2 720 723 724
1053 3 714 720 725
1054 3 726 720 725
1055 2 722 721 732
1056 2 724 723 732
1057 3 720 726 732
1058 1 726 727 732
1059 1 726 729 732
1060 2 726 727 728
1061 2 726 729 730
1062 3 720 726 731
1063 3 732 726 731
1064 2 728 727 738
1065 2 730 729 738
1066 3 726 732 738
1067 1 732 733 738
1068 1 732 735 738
1069 2 732 733 734
1070 2 732 735 736
1071 3 726 732 737
1072 3 738 732 737
1073 2 734 733 744
1074 2 736 735 744
1075 3 732 738 744
1076 1 738 739 744
1077 1 738 741 744
1078 2 738 739 740
1079 2 738 741 742
1080 3 732 738 743
1081 3 744 738 743
1082 2 740 739 750
1083 2 742 741 750
1084 3 738 744 750
1085 1 744 745 750
1086 1 744 747 750
1087 2 744 745 746
1088 2 744 747 748
1089 3 738 744 749
1090 3 750 744 749
1091 2 746 745 756
1092 2 748 747 756
1093 3 744 750 756
1094 1 750 751 756
1095 1 750 753 756
1096 2 750 751 752
1097 2 750 753 754
1098 3 744 750 755
1099 3 756 750 755
1100 2 752 751 762
1101 2 754 753 762
1102 3 750 756 762
1103 1 756 757 762
1104 1 756 759 762
1105 2 756 757 758
1106 2 756 759 760
1107 3 750 756 761
1108 3 762 756 761
1109 2 758 757 768
1110 2 760 759 768
1111 3 756 762 768
1112 1 762 763 768
1113 1 762 765 768
1114 2 762 763 764
1115 2 762 765 766
1116 3 756 762 767
1117 3 768 762 767
1118 2 764 763 774
1119 2 766 765 774
1120 3 762 768 774
1121 1 768 769 774
1122 1 768 771 774
1123 2 768 769 770
1124 2 768 771 772
1125 3 762 768 773
1126 3 774 768 773
1127 2 770 769 780
1128 2 772 771 780
1129 3 768 774 780
1130 1 774 775 780
1131 1 774 777 780
1132 2 774 775 776
1133 2 774 777 778
1134 3 768 774 779
1135 3 780 774 779
1136 2 776 775 786
1137 2 778 777 786
1138 3 774 780 786
1139 1 780 781 786
1140 1 780 783 786
1141 2 780 781 782
1142 2 780 783 784
1143 3 774 780 785
1144 3 786 780 785
1145 2 782 781 792
1146 2 784 783 792
1147 3 780 786 792
1148 1 786 787 792
1149 1 786 789 792
1150 2 786 787 788
1151 2 786 789 790
1152 3 780 786 791
1153 3 792 786 791
1154 2 788 787 798
1155 2 790 789 798
1156 3 786 792 798
1157 1 792 793 798
1158 1 792 795 798
1159 2 792 793 794
1160 2 792 795 796
1161 3 786 792 797
1162 3 798 792 797
1163 1 799 800 804
1164 1 799 802 804
1165 2 799 800 801
1166 2 799 802 803
1167 2 801 800 810
1168 2 803 802 810
1169 3 799 804 810
1170 1 804 805 810
1171 1 804 807 810
1172 2 804 805 806
1173 2 804 807 808
1174 3 799 804 809
1175 3 810 804 809
1176 2 806 805 816
1177 2 808 807 816
1178 3 804 810 816
1179 1 810 811 816
1180 1 810 813 816
1181 2 810 811 812
1182 2 810 813 814
1183 3 804 810 815
1184 3 816 810 815
1185 2 812 811 822
1186 2 814 813 822
1187 3 810 816 822
1188 1 816 817 822
1189 1 816 819 822
1190 2 816 817 818
1191 2 816 819 820
1192 3 810 816 821
1193 3 822 816 821
1194 2 818 817 828
1195 2 820 819 828
1196 3 816 822 828
1197 1 822 823 828
1198 1 822 825 828
1199 2 822 823 824
1200 2 822 825 826
1201 3 816 822 827
1202 3 828 822 827
1203 2 824 823 834
1204 2 826 825 834
1205 3 822 828 834
1206 1 828 829 834
1207 1 828 831 834
1208 2 828 829 830
1209 2 828 831 832
1210 3 822 828 833
1211 3 834 828 833
1212 2 830 829 840
1213 2 832 831 840
1214 3 828 834 840
1215 1 834 835 840
1216 1 834 837 840
1217 2 834 835 836
1218 2 834 837 838
1219 3 828 834 839
1220 3 840 834 839
1221 2 836 835 846
1222 2 838 837 846
1223 3 834 840 846
1224 1 840 841 846
1225 1 840 843 846
1226 2 840 841 842
1227 2 840 843 844
1228 3 834 840 845
1229 3 846 840 845
1230 2 842 841 852
1231 2 844 843 852
1232 3 840 846 852
1233 1 846 847 852
1234 1 846 849 852
1235 2 846 847 848
1236 2 846 849 850
1237 3 840 846 851
1238 3 852 846 851
1239 2 848 847 858
1240 2 850 849 858
1241 3 846 852 858
1242 1 852 853 858
1243 1 852 855 858
1244 2 852 853 854
1245 2 852 855 856
1246 3 846 852 857
1247 3 858 852 857
1248 2 854 853 864
1249 2 856 855 864
1250 3 852 858 864
1251 1 858 859 864
1252 1 858 861 864
1253 2 858 859 860
1254 2 858 861 862
1255 3 852 858 863
1256 3 864 858 863
1257 2 860 859 870
1258 2 862 861 870
1259 3 858 864 870
1260 1 864 865 870
1261 1 864 867 870
1262 2 864 865 866
1263 2 864 867 868
1264 3 858 864 869
1265 3 870 864 869
1266 2 866 865 876
1267 2 868 867 876
1268 3 864 870 876
1269 1 870 871 876
1270 1 870 873 876
1271 2 870 871 872
1272 2 870 873 874
1273 3 864 870 875
1274 3 876 870 875
1275 2 872 871 882
1276 2 874 873 882
1277 3 870 876 882
1278 1 876 877 882
1279 1 876 879 882
1280 2 876 877 878
1281 2 876 879 880
1282 3 870 876 881
1283 3 882 876 881
1284 2 878 877 888
1285 2 880 879 888
1286 3 876 882 888
1287 1 882 883 888
1288 1 882 885 888
1289 2 882 883 884
1290 2 882 885 886
1291 3 876 882 887
1292 3 888 882 887
1293 2 884 883 894
1294 2 886 885 894
1295 3 882 888 894
1296 1 888 889 894
1297 1 888 891 894
1298 2 888 889 890
1299 2 888 891 892
1300 3 882 888 893
1301 3 894 888 893
1302 2 890 889 900
1303 2 892 891 900
1304 3 888 894 900
1305 1 894 895 900
1306 1 894 897 900
1307 2 894 895 896
1308 2 894 897 898
1309 3 888 894 899
1310 3 900 894 899
1311 2 896 895 906
1312 2 898 897 906
1313 3 894 900 906
1314 1 900 901 906
1315 1 900 903 906
1316 2 900 901 902
1317 2 900 903 904
1318 3 894 900 905
1319 3 906 900 905
1320 2 902 901 912
1321 2 904 903 912
1322 3 900 906 912
1323 1 906 907 912
1324 1 906 909 912
1325 2 906 907 908
1326 2 906 909 910
1327 3 900 906 911
1328 3 912 906 911
1329 1 913 914 918
1330 1 913 916 918
1331 2 913 914 915
1332 2 913 916 917
1333 2 915 914 924
1334 2 917 916 924
1335 3 913 918 924
1336 1 918 919 924
1337 1 918 921 924
1338 2 918 919 920
1339 2 918 921 922
1340 3 913 918 923
1341 3 924 918 923
1342 2 920 919 930
1343 2 922 921 930
1344 3 918 924 930
1345 1 924 925 930
1346 1 924 927 930
1347 2 924 925 926
1348 2 924 927 928
1349 3 918 924 929
1350 3 930 924 929
1351 2 926 925 936
1352 2 928 927 936
1353 3 924 930 936
1354 1 930 931 936
1355 1 930 933 936
1356 2 930 931 932
1357 2 930 933 934
1358 3 924 930 935
1359 3 936 930 935
1360 2 932 931 942
1361 2 934 933 942
1362 3 930 936 942
1363 1 936 937 942
1364 1 936 939 942
1365 2 936 937 938
1366 2 936 939 940
1367 3 930 936 941
1368 3 942 936 941
1369 2 938 937 948
1370 2 940 939 948
1371 3 936 942 948
1372 1 942 943 948
1373 1 942 945 948
1374 2 942 943 944
1375 2 942 945 946
1376 3 936 942 947
1377 3 948 942 947
1378 2 944 943 954
1379 2 946 945 954
1380 3 942 948 954
1381 1 948 949 954
1382 1 948 951 954
1383 2 948 949 950
1384 2 948 951 952
1385 3 942 948 953
1386 3 954 948 953
1387 2 950 949 960
1388 2 952 951 960
1389 3 948 954 960
1390 1 954 955 960
1391 1 954 957 960
1392 2 954 955 956
1393 2 954 957 958
1394 3 948 954 959
1395 3 960 954 959
1396 2 956 955 966
1397 2 958 957 966
1398 3 954 960 966
1399 1 960 961 966
1400 1 960 963 966
1401 2 960 961 962
1402 2 960 963 964
1403 3 954 960 965
1404 3 966 960 965
1405 2 962 961 972
1406 2 964 963 972
1407 3 960 966 972
1408 1 966 967 972
1409 1 966 969 972
1410 2 966 967 968
1411 2 966 969 970
1412 3 960 966 971
1413 3 972 966 971
1414 2 968 967 978
1415 2 970 969 978
1416 3 966 972 978
1417 1 972 973 978
1418 1 972 975 978
1419 2 972 973 974
1420 2 972 975 976
1421 3 966 972 977
1422 3 978 972 977
1423 2 974 973 984
1424 2 976 975 984
1425 3 972 978 984
1426 1 978 979 984
1427 1 978 981 984
1428 2 978 979 980
1429 2 978 981 982
1430 3 972 978 983
1431 3 984 978 983
1432 2 980 979 990
1433 2 982 981 990
1434 3 978 984 990
1435 1 984 985 990
1436 1 984 987 990
1437 2 984 985 986
1438 2 984 987 988
1439 3 978 984 989
1440 3 990 984 989
1441 2 986 985 996
1442 2 988 987 996
1443 3 984 990 996
1444 1 990 991 996
1445 1 990 993 996
1446 2 990 991 992
1447 2 990 993 994
1448 3 984 990 995
1449 3 996 990 995
1450 2 992 991 1002
1451 2 994 993 1002
1452 3 990 996 1002
1453 1 996 997 1002
1454 1 996 999 1002
1455 2 996 997 998
1456 2 996 999 1000
1457 3 990 996 1001
1458 3 1002 996 1001
1459 2 998 997 1008
1460 2 1000 999 1008
1461 3 996 1002 1008
1462 1 1002 1003 1008
1463 1 1002 1005 1008
1464 2 1002 1003 1004
1465 2 1002 1005 1006
1466 3 996 1002 1007
1467 3 1008 1002 1007
1468 2 1004 1003 1014
1469 2 1006 1005 1014
1470 3 1002 1008 1014
1471 1 1008 1009 1014
1472 1 1008 1011 1014
1473 2 1008 1009 1010
1474 2 1008 1011 1012
1475 3 1002 1008 1013
1476 3 1014 1008 1013
1477 2 1010 1009 1020
1478 2 1012 1011 1020
1479 3 1008 1014 1020
1480 1 1014 1015 1020
1481 1 1014 1017 1020
1482 2 1014 1015 1016
1483 2 1014 1017 1018
1484 3 1008 1014 1019
1485 3 1020 1014 1019
1486 2 1016 1015 1026
1487 2 1018 1017 1026
1488 3 1014 1020 1026
1489 1 1020 1021 1026
1490 1 1020 1023 1026
1491 2 1020 1021 1022
1492 2 1020 1023 1024
1493 3 1014 1020 1025
1494 3 1026 1020 1025
1495 1 1027 1028 1032
1496 1 1027 1030 1032
1497 2 1027 1028 1029
1498 2 1027 1030 1031
1499 2 1029 1028 1038
1500 2 1031 1030 1038
1501 3 1027 1032 1038
1502 1 1032 1033 1038
1503 1 1032 1035 1038
1504 2 1032 1033 1034
1505 2 1032 1035 1036
1506 3 1027 1032 1037
1507 3 1038 1032 1037
1508 2 1034 1033 1044
1509 2 1036 1035 1044
1510 3 1032 1038 1044
1511 1 1038 1039 1044
1512 1 1038 1041 1044
1513 2 1038 1039 1040
1514 2 1038 1041 1042
1515 3 1032 1038 1043
1516 3 1044 1038 1043
1517 2 1040 1039 1050
1518 2 1042 1041 1050
1519 3 1038 1044 1050
1520 1 1044 1045 1050
1521 1 1044 1047 1050
1522 2 1044 1045 1046
1523 2 1044 1047 1048
1524 3 1038 1044 1049
1525 3 1050 1044 1049
1526 2 1046 1045 1056
1527 2 1048 1047 1056
1528 3 1044 1050 1056
1529 1 1050 1051 1056
1530 1 1050 1053 1056
1531 2 1050 1051 1052
1532 2 1050 1053 1054
1533 3 1044 1050 1055
1534 3 1056 1050 1055
1535 2 1052 1051 1062
1536 2 1054 1053 1062
1537 3 1050 1056 1062
1538 1 1056 1057 1062
1539 1 1056 1059 1062
1540 2 1056 1057 1058
1541 2 1056 1059 1060
1542 3 1050 1056 1061
1543 3 1062 1056 1061
1544 2 1058 1057 1068
1545 2 1060 1059 1068
1546 3 1056 1062 1068
1547 1 1062 1063 1068
1548 1 1062 1065 1068
1549 2 1062 1063 1064
1550 2 1062 1065 1066
1551 3 1056 1062 1067
1552 3 1068 1062 1067
1553 2 1064 1063 1074
1554 2 1066 1065 1074
1555 3 1062 1068 1074
1556 1 1068 1069 1074
1557 1 1068 1071 1074
1558 2 1068 1069 1070
1559 2 1068 1071 1072
1560 3 1062 1068 1073
1561 3 1074 1068 1073
1562 2 1070 1069 1080
1563 2 1072 1071 1080
1564 3 1068 1074 1080
1565 1 1074 1075 1080
1566 1 1074 1077 1080
1567 2 1074 1075 1076
1568 2 1074 1077 1078
1569 3 1068 1074 1079
1570 3 1080 1074 1079
1571 2 1076 1075 1086
1572 2 1078 1077 1086
1573 3 1074 1080 1086
1574 1 1080 1081 1086
1575 1 1080 1083 1086
1576 2 1080 1081 1082
1577 2 1080 1083 1084
1578 3 1074 1080 1085
1579 3 1086 1080 1085
1580 2 1082 1081 1092
1581 2 1084 1083 1092
1582 3 1080 1086 1092
1583 1 1086 1087 1092
1584 1 1086 1089 1092
1585 2 1086 1087 1088
1586 2 1086 1089 1090
1587 3 1080 1086 1091
1588 3 1092 1086 1091
1589 2 1088 1087 1098
1590 2 1090 1089 1098
1591 3 1086 1092 1098
1592 1 1092 1093 1098
1593 1 1092 1095 1098
1594 2 1092 1093 1094
1595 2 1092 1095 1096
1596 3 1086 1092 1097
1597 3 1098 1092 1097
1598 2 1094 1093 1104
1599 2 1096 1095 1104
1600 3 1092 1098 1104
1601 1 1098 1099 1104
1602 1 1098 1101 1104
1603 2 1098 1099 1100
1604 2 1098 1101 1102
1605 3 1092 1098 1103
1606 3 1104 1098 1103
1607 2 1100 1099 1110
1608 2 1102 1101 1110
1609 3 1098 1104 1110
1610 1 1104 1105 1110
1611 1 1104 1107 1110
1612 2 1104 1105 1106
1613 2 1104 1107 1108
1614 3 1098 1104 1109
1615 3 1110 1104 1109
1616 2 1106 1105 1116
1617 2 1108 1107 1116
1618 3 1104 1110 1116
1619 1 1110 1111 1116
1620 1 1110 1113 1116
1621 2 1110 1111 1112
1622 2 1110 1113 1114
1623 3 1104 1110 1115
1624 3 1116 1110 1115
1625 2 1112 1111 1122
1626 2 1114 1113 1122
1627 3 1110 1116 1122
1628 1 1116 1117 1122
1629 1 1116 1119 1122
1630 2 1116 1117 1118
1631 2 1116 1119 1120
1632 3 1110 1116 1121
1633 3 1122 1116 1121
1634 2 1118 1117 1128
1635 2 1120 1119 1128
1636 3 1116 1122 1128
1637 1 1122 1123 1128
1638 1 1122 1125 1128
1639 2 1122 1123 1124
1640 2 1122 1125 1126
1641 3 1116 1122 1127
1642 3 1128 1122 1127
1643 2 1124 1123 1134
1644 2 1126 1125 1134
1645 3 1122 1128 1134
1646 1 1128 1129 1134
1647 1 1128 1131 1134
1648 2 1128 1129 1130
1649 2 1128 1131 1132
1650 3 1122 1128 1133
1651 3 1134 1128 1133
1652 2 1130 1129 1140
1653 2 1132 1131 1140
1654 3 1128 1134 1140
1655 1 1134 1135 1140
1656 1 1134 1137 1140
1657 2 1134 1135 1136
1658 2 1134 1137 1138
1659 3 1128 1134 1139
1660 3 1140 1134 1139
1661 1 1141 1142 1146
1662 1 1141 1144 1146
1663 2 1141 1142 1143
1664 2 1141 1144 1145
1665 2 1143 1142 1152
1666 2 1145 1144 1152
1667 3 1141 1146 1152
1668 1 1146 1147 1152
1669 1 1146 1149 1152
1670 2 1146 1147 1148
1671 2 1146 1149 1150
1672 3 1141 1146 1151
1673 3 1152 1146 1151
1674 2 1148 1147 1158
1675 2 1150 1149 1158
1676 3 1146 1152 1158
1677 1 1152 1153 1158
1678 1 1152 1155 1158
1679 2 1152 1153 1154
1680 2 1152 1155 1156
1681 3 1146 1152 1157
1682 3 1158 1152 1157
1683 2 1154 1153 1164
1684 2 1156 1155 1164
1685 3 1152 1158 1164
1686 1 1158 1159 1164
1687 1 1158 1161 1164
1688 2 1158 1159 1160
1689 2 1158 1161 1162
1690 3 1152 1158 1163
1691 3 1164 1158 1163
1692 2 1160 1159 1170
1693 2 1162 1161 1170
1694 3 1158 1164 1170
1695 1 1164 1165 1170
1696 1 1164 1167 1170
1697 2 1164 1165 1166
1698 2 1164 1167 1168
1699 3 1158 1164 1169
1700 3 1170 1164 1169
1701 2 1166 1165 1176
1702 2 1168 1167 1176
1703 3 1164 1170 1176
1704 1 1170 1171 1176
1705 1 1170 1173 1176
1706 2 1170 1171 1172
1707 2 1170 1173 1174
1708 3 1164 1170 1175
1709 3 1176 1170 1175
1710 2 1172 1171 1182
1711 2 1174 1173 1182
1712 3 1170 1176 1182
1713 1 1176 1177 1182
1714 1 1176 1179 1182
1715 2 1176 1177 1178
1716 2 1176 1179 1180
1717 3 1170 1176 1181
1718 3 1182 1176 1181
1719 2 1178 1177 1188
1720 2 1180 1179 1188
1721 3 1176 1182 1188
1722 1 1182 1183 1188
1723 1 1182 1185 1188
1724 2 1182 1183 1184
1725 2 1182 1185 1186
1726 3 1176 1182 1187
1727 3 1188 1182 1187
1728 2 1184 1183 1194
1729 2 1186 1185 1194
1730 3 1182 1188 1194
1731 1 1188 1189 1194
1732 1 1188 1191 1194
1733 2 1188 1189 1190
1734 2 1188 1191 1192
1735 3 1182 1188 1193
1736 3 1194 1188 1193
1737 2 1190 1189 1200
1738 2 1192 1191 1200
1739 3 1188 1194 1200
1740 1 1194 1195 1200
1741 1 1194 1197 1200
1742 2 1194 1195 1196
1743 2 1194 1197 1198
1744 3 1188 1194 1199
1745 3 1200 1194 1199
1746 2 1196 1195 1206
1747 2 1198 1197 1206
1748 3 1194 1200 1206
1749 1 1200 1201 1206
1750 1 1200 1203 1206
1751 2 1200 1201 1202
1752 2 1200 1203 1204
1753 3 1194 1200 1205
1754 3 1206 1200 1205
1755 2 1202 1201 1212
1756 2 1204 1203 1212
1757 3 1200 1206 1212
1758 1 1206 1207 1212
1759 1 1206 1209 1212
1760 2 1206 1207 1208
1761 2 1206 1209 1210
1762 3 1200 1206 1211
1763 3 1212 1206 1211
1764 2 1208 1207 1218
1765 2 1210 1209 1218
1766 3 1206 1212 1218
1767 1 1212 1213 1218
1768 1 1212 1215 1218
1769 2 1212 1213 1214
1770 2 1212 1215 1216
1771 3 1206 1212 1217
1772 3 1218 1212 1217
1773 2 1214 1213 1224
1774 2 1216 1215 1224
1775 3 1212 1218 1224
1776 1 1218 1219 1224
1777 1 1218 1221 1224
1778 2 1218 1219 1220
1779 2 1218 1221 1222
1780 3 1212 1218 1223
1781 3 1224 1218 1223
1782 2 1220 1219 1230
1783 2 1222 1221 1230
1784 3 1218 1224 1230
1785 1 1224 1225 1230
1786 1 1224 1227 1230
1787 2 1224 1225 1226
1788 2 1224 1227 1228
1789 3 1218 1224 1229
1790 3 1230 1224 1229
1791 2 1226 1225 1236
1792 2 1228 1227 1236
1793 3 1224 1230 1236
1794 1 1230 1231 1236
1795 1 1230 1233 1236
1796 2 1230 1231 1232
1797 2 1230 1233 1234
1798 3 1224 1230 1235
1799 3 1236 1230 1235
1800 2 1232 1231 1242
1801 2 1234 1233 1242
1802 3 1230 1236 1242
1803 1 1236 1237 1242
1804 1 1236 1239 1242
1805 2 1236 1237 1238
1806 2 1236 1239 1240
1807 3 1230 1236 1241
1808 3 1242 1236 1241
1809 2 1238 1237 1248
1810 2 1240 1239 1248
1811 3 1236 1242 1248
1812 1 1242 1243 1248
1813 1 1242 1245 1248
1814 2 1242 1243 1244
1815 2 1242 1245 1246
1816 3 1236 1242 1247
1817 3 1248 1242 1247
1818 2 1244 1243 1254
1819 2 1246 1245 1254
1820 3 1242 1248 1254
1821 1 1248 1249 1254
1822 1 1248 1251 1254
1823 2 1248 1249 1250
1824 2 1248 1251 1252
1825 3 1242 1248 1253
1826 3 1254 1248 1253
1827 1 1255 1256 1260
1828 1 1255 1258 1260
1829 2 1255 1256 1257
1830 2 1255 1258 1259
1831 2 1257 1256 1266
1832 2 1259 1258 1266
1833 3 1255 1260 1266
1834 1 1260 1261 1266
1835 1 1260 1263 1266
1836 2 1260 1261 1262
1837 2 1260 1263 1264
1838 3 1255 1260 1265
1839 3 1266 1260 1265
1840 2 1262 1261 1272
1841 2 1264 1263 1272
1842 3 1260 1266 1272
1843 1 1266 1267 1272
1844 1 1266 1269 1272
1845 2 1266 1267 1268
1846 2 1266 1269 1270
1847 3 1260 1266 1271
1848 3 1272 1266 1271
1849 2 1268 1267 1278
1850 2 1270 1269 1278
1851 3 1266 1272 1278
1852 1 1272 1273 1278
1853 1 1272 1275 1278
1854 2 1272 1273 1274
1855 2 1272 1275 1276
1856 3 1266 1272 1277
1857 3 1278 1272 1277
1858 2 1274 1273 1284
1859 2 1276 1275 1284
1860 3 1272 1278 1284
1861 1 1278 1279 1284
1862 1 1278 1281 1284
1863 2 1278 1279 1280
1864 2 1278 1281 1282
1865 3 1272 1278 1283
1866 3 1284 1278 1283
1867 2 1280 1279 1290
1868 2 1282 1281 1290
1869 3 1278 1284 1290
1870 1 1284 1285 1290
1871 1 1284 1287 1290
1872 2 1284 1285 1286
1873 2 1284 1287 1288
1874 3 1278 1284 1289
1875 3 1290 1284 1289
1876 2 1286 1285 1296
1877 2 1288 1287 1296
1878 3 1284 1290 1296
1879 1 1290 1291 1296
1880 1 1290 1293 1296
1881 2 1290 1291 1292
1882 2 1290 1293 1294
1883 3 1284 1290 1295
1884 3 1296 1290 1295
1885 2 1292 1291 1302
1886 2 1294 1293 1302
1887 3 1290 1296 1302
1888 1 1296 1297 1302
1889 1 1296 1299 1302
1890 2 1296 1297 1298
1891 2 1296 1299 1300
1892 3 1290 1296 1301
1893 3 1302 1296 1301
1894 2 1298 1297 1308
1895 2 1300 1299 1308
1896 3 1296 1302 1308
1897 1 1302 1303 1308
1898 1 1302 1305 1308
1899 2 1302 1303 1304
1900 2 1302 1305 1306
1901 3 1296 1302 1307
1902 3 1308 1302 1307
1903 2 1304 1303 1314
1904 2 1306 1305 1314
1905 3 1302 1308 1314
1906 1 1308 1309 1314
1907 1 1308 1311 1314
1908 2 1308 1309 1310
1909 2 1308 1311 1312
1910 3 1302 1308 1313
1911 3 1314 1308 1313
1912 2 1310 1309 1320
1913 2 1312 1311 1320
1914 3 1308 1314 1320
1915 1 1314 1315 1320
1916 1 1314 1317 1320
1917 2 1314 1315 1316
1918 2 1314 1317 1318
1919 3 1308 1314 1319
1920 3 1320 1314 1319
1921 2 1316 1315 1326
1922 2 1318 1317 1326
1923 3 1314 1320 1326
1924 1 1320 1321 1326
1925 1 1320 1323 1326
1926 2 1320 1321 1322
1927 2 1320 1323 1324
1928 3 1314 1320 1325
1929 3 1326 1320 1325
1930 2 1322 1321 1332
1931 2 1324 1323 1332
1932 3 1320 1326 1332
1933 1 1326 1327 1332
1934 1 1326 1329 1332
1935 2 1326 1327 1328
1936 2 1326 1329 1330
1937 3 1320 1326 1331
1938 3 1332 1326 1331
1939 2 1328 1327 1338
1940 2 1330 1329 1338
1941 3 1326 1332 1338
1942 1 1332 1333 1338
1943 1 1332 1335 1338
1944 2 1332 1333 1334
1945 2 1332 1335 1336
1946 3 1326 1332 1337
1947 3 1338 1332 1337
1948 2 1334 1333 1344
1949 2 1336 1335 1344
1950 3 1332 1338 1344
1951 1 1338 1339 1344
1952 1 1338 1341 1344
1953 2 1338 1339 1340
1954 2 1338 1341 1342
1955 3 1332 1338 1343
1956 3 1344 1338 1343
1957 2 1340 1339 1350
1958 2 1342 1341 1350
1959 3 1338 1344 1350
1960 1 1344 1345 1350
1961 1 1344 1347 1350
1962 2 1344 1345 1346
1963 2 1344 1347 1348
1964 3 1338 1344 1349
1965 3 1350 1344 1349
1966 2 1346 1345 1356
1967 2 1348 1347 1356
1968 3 1344 1350 1356
1969 1 1350 1351 1356
1970 1 1350 1353 1356
1971 2 1350 1351 1352
1972 2 1350 1353 1354
1973 3 1344 1350 1355
1974 3 1356 1350 1355
1975 2 1352 1351 1362
1976 2 1354 1353 1362
1977 3 1350 1356 1362
1978 1 1356 1357 1362
1979 1 1356 1359 1362
1980 2 1356 1357 1358
1981 2 1356 1359 1360
1982 3 1350 1356 1361
1983 3 1362 1356 1361
1984 2 1358 1357 1368
1985 2 1360 1359 1368
1986 3 1356 1362 1368
1987 1 1362 1363 1368
1988 1 1362 1365 1368
1989 2 1362 1363 1364
1990 2 1362 1365 1366
1991 3 1356 1362 1367
1992 3 1368 1362 1367
1993 1 1369 1370 1374
1994 1 1369 1372 1374
1995 2 1369 1370 1371
1996 2 1369 1372 1373
1997 2 1371 1370 1380
1998 2 1373 1372 1380
1999 3 1369 1374 1380
2000 1 1374 1375 1380
2001 1 1374 1377 1380
2002 2 1374 1375 1376
2003 2 1374 1377 1378
2004 3 1369 1374 1379
2005 3 1380 1374 1379
2006 2 1376 1375 1386
2007 2 1378 1377 1386
2008 3 1374 1380 1386
2009 1 1380 1381 1386
2010 1 1380 1383 1386
2011 2 1380 1381 1382
2012 2 1380 1383 1384
2013 3 1374 1380 1385
2014 3 1386 1380 1385
2015 2 1382 1381 1392
2016 2 1384 1383 1392
2017 3 1380 1386 1392
2018 1 1386 1387 1392
2019 1 1386 1389 1392
2020 2 1386 1387 1388
2021 2 1386 1389 1390
2022 3 1380 1386 1391
2023 3 1392 1386 1391
2024 2 1388 1387 1398
2025 2 1390 1389 1398
2026 3 1386 1392 1398
2027 1 1392 1393 1398
2028 1 1392 1395 1398
2029 2 1392 1393 1394
2030 2 1392 1395 1396
2031 3 1386 1392 1397
2032 3 1398 1392 1397
2033 2 1394 1393 1404
2034 2 1396 1395 1404
2035 3 1392 1398 1404
2036 1 1398 1399 1404
2037 1 1398 1401 1404
2038 2 1398 1399 1400
2039 2 1398 1401 1402
2040 3 1392 1398 1403
2041 3 1404 1398 1403
2042 2 1400 1399 1410
2043 2 1402 1401 1410
2044 3 1398 1404 1410
2045 1 1404 1405 1410
2046 1 1404 1407 1410
2047 2 1404 1405 1406
2048 2 1404 1407 1408
2049 3 1398 1404 1409
2050 3 1410 1404 1409
2051 2 1406 1405 1416
2052 2 1408 1407 1416
2053 3 1404 1410 1416
2054 1 1410 1411 1416
2055 1 1410 1413 1416
2056 2 1410 1411 1412
2057 2 1410 1413 1414
2058 3 1404 1410 1415
2059 3 1416 1410 1415
2060 2 1412 1411 1422
2061 2 1414 1413 1422
2062 3 1410 1416 1422
2063 1 1416 1417 1422
2064 1 1416 1419 1422
2065 2 1416 1417 1418
2066 2 1416 1419 1420
2067 3 1410 1416 1421
2068 3 1422 1416 1421
2069 2 1418 1417 1428
2070 2 1420 1419 1428
2071 3 1416 1422 1428
2072 1 1422 1423 1428
2073 1 1422 1425 1428
2074 2 1422 1423 1424
2075 2 1422 1425 1426
2076 3 1416 1422 1427
2077 3 1428 1422 1427
2078 2 1424 1423 1434
2079 2 1426 1425 1434
2080 3 1422 1428 1434
2081 1 1428 1429 1434
2082 1 1428 1431 1434
2083 2 1428 1429 1430
2084 2 1428 1431 1432
2085 3 1422 1428 1433
2086 3 1434 1428 1433
2087 2 1430 1429 1440
2088 2 1432 1431 1440
2089 3 1428 1434 1440
2090 1 1434 1435 1440
2091 1 1434 1437 1440
2092 2 1434 1435 1436
2093 2 1434 1437 1438
2094 3 1428 1434 1439
2095 3 1440 1434 1439
2096 2 1436 1435 1446
2097 2 1438 1437 1446
2098 3 1434 1440 1446
2099 1 1440 1441 1446
2100 1 1440 1443 1446
2101 2 1440 1441 1442
2102 2 1440 1443 1444
2103 3 1434 1440 1445
2104 3 1446 1440 1445
2105 2 1442 1441 1452
2106 2 1444 1443 1452
2107 3 1440 1446 1452
2108 1 1446 1447 1452
2109 1 1446 1449 1452
2110 2 1446 1447 1448
2111 2 1446 1449 1450
2112 3 1440 1446 1451
2113 3 1452 1446 1451
2114 2 1448 1447 1458
2115 2 1450 1449 1458
2116 3 1446 1452 1458
2117 1 1452 1453 1458
2118 1 1452 1455 1458
2119 2 1452 1453 1454
2120 2 1452 1455 1456
2121 3 1446 1452 1457
2122 3 1458 1452 1457
2123 2 1454 1453 1464
2124 2 1456 1455 1464
2125 3 1452 1458 1464
2126 1 1458 1459 1464
2127 1 1458 1461 1464
2128 2 1458 1459 1460
2129 2 1458 1461 1462
2130 3 1452 1458 1463
2131 3 1464 1458 1463
2132 2 1460 1459 1470
2133 2 1462 1461 1470
2134 3 1458 1464 1470
2135 1 1464 1465 1470
2136 1 1464 1467 1470
2137 2 1464 1465 1466
2138 2 1464 1467 1468
2139 3 1458 1464 1469
2140 3 1470 1464 1469
2141 2 1466 1465 1476
2142 2 1468 1467 1476
2143 3 1464 1470 1476
2144 1 1470 1471 1476
2145 1 1470 1473 1476
2146 2 1470 1471 1472
2147 2 1470 1473 1474
2148 3 1464 1470 1475
2149 3 1476 1470 1475
2150 2 1472 1471 1482
2151 2 1474 1473 1482
2152 3 1470 1476 1482
2153 1 1476 1477 1482
2154 1 1476 1479 1482
2155 2 1476 1477 1478
2156 2 1476 1479 1480
2157 3 1470 1476 1481
2158 3 1482 1476 1481
2159 1 1483 1484 1488
2160 1 1483 1486 1488
2161 2 1483 1484 1485
2162 2 1483 1486 1487
2163 2 1485 1484 1494
2164 2 1487 1486 1494
2165 3 1483 1488 1494
2166 1 1488 1489 1494
2167 1 1488 1491 1494
2168 2 1488 1489 1490
2169 2 1488 1491 1492
2170 3 1483 1488 1493
2171 3 1494 1488 1493
2172 2 1490 1489 1500
2173 2 1492 1491 1500
2174 3 1488 1494 1500
2175 1 1494 1495 1500
2176 1 1494 1497 1500
2177 2 1494 1495 1496
2178 2 1494 1497 1498
2179 3 1488 1494 1499
2180 3 1500 1494 1499
2181 2 1496 1495 1506
2182 2 1498 1497 1506
2183 3 1494 1500 1506
2184 1 1500 1501 1506
2185 1 1500 1503 1506
2186 2 1500 1501 1502
2187 2 1500 1503 1504
2188 3 1494 1500 1505
2189 3 1506 1500 1505
2190 2 1502 1501 1512
2191 2 1504 1503 1512
2192 3 1500 1506 1512
2193 1 1506 1507 1512
2194 1 1506 1509 1512
2195 2 1506 1507 1508
2196 2 1506 1509 1510
2197 3 1500 1506 1511
2198 3 1512 1506 1511
2199 2 1508 1507 1518
2200 2 1510 1509 1518
2201 3 1506 1512 1518
2202 1 1512 1513 1518
2203 1 1512 1515 1518
2204 2 1512 1513 1514
2205 2 1512 1515 1516
2206 3 1506 1512 1517
2207 3 1518 1512 1517
2208 2 1514 1513 1524
2209 2 1516 1515 1524
2210 3 1512 1518 1524
2211 1 1518 1519 1524
2212 1 1518 1521 1524
2213 2 1518 1519 1520
2214 2 1518 1521 1522
2215 3 1512 1518 1523
2216 3 1524 1518 1523
2217 2 1520 1519 1530
2218 2 1522 1521 1530
2219 3 1518 1524 1530
2220 1 1524 1525 1530
2221 1 1524 1527 1530
2222 2 1524 1525 1526
2223 2 1524 1527 1528
2224 3 1518 1524 1529
2225 3 1530 1524 1529
2226 2 1526 1525 1536
2227 2 1528 1527 1536
2228 3 1524 1530 1536
2229 1 1530 1531 1536
2230 1 1530 1533 1536
2231 2 1530 1531 1532
2232 2 1530 1533 1534
2233 3 1524 1530 1535
2234 3 1536 1530 1535
2235 2 1532 1531 1542
2236 2 1534 1533 1542
2237 3 1530 1536 1542
2238 1 1536 1537 1542
2239 1 1536 1539 1542
2240 2 1536 1537 1538
2241 2 1536 1539 1540
2242 3 1530 1536 1541
2243 3 1542 1536 1541
2244 2 1538 1537 1548
2245 2 1540 1539 1548
2246 3 1536 1542 1548
2247 1 1542 1543 1548
2248 1 1542 1545 1548
2249 2 1542 1543 1544
2250 2 1542 1545 1546
2251 3 1536 1542 1547
2252 3 1548 1542 1547
2253 2 1544 1543 1554
2254 2 1546 1545 1554
2255 3 1542 1548 1554
2256 1 1548 1549 1554
2257 1 1548 1551 1554
2258 2 1548 1549 1550
2259 2 1548 1551 1552
2260 3 1542 1548 1553
2261 3 1554 1548 1553
2262 2 1550 1549 1560
2263 2 1552 1551 1560
2264 3 1548 1554 1560
2265 1 1554 1555 1560
2266 1 1554 1557 1560
2267 2 1554 1555 1556
2268 2 1554 1557 1558
2269 3 1548 1554 1559
2270 3 1560 1554 1559
2271 2 1556 1555 1566
2272 2 1558 1557 1566
2273 3 1554 1560 1566
2274 1 1560 1561 1566
2275 1 1560 1563 1566
2276 2 1560 1561 1562
2277 2 1560 1563 1564
2278 3 1554 1560 1565
2279 3 1566 1560 1565
2280 2 1562 1561 1572
2281 2 1564 1563 1572
2282 3 1560 1566 1572
2283 1 1566 1567 1572
2284 1 1566 1569 1572
2285 2 1566 1567 1568
2286 2 1566 1569 1570
2287 3 1560 1566 1571
2288 3 1572 1566 1571
2289 2 1568 1567 1578
2290 2 1570 1569 1578
2291 3 1566 1572 1578
2292 1 1572 1573 1578
2293 1 1572 1575 1578
2294 2 1572 1573 1574
2295 2 1572 1575 1576
2296 3 1566 1572 1577
2297 3 1578 1572 1577
2298 2 1574 1573 1584
2299 2 1576 1575 1584
2300 3 1572 1578 1584
2301 1 1578 1579 1584
2302 1 1578 1581 1584
2303 2 1578 1579 1580
2304 2 1578 1581 1582
2305 3 1572 1578 1583
2306 3 1584 1578 1583
2307 2 1580 1579 1590
2308 2 1582 1581 1590
2309 3 1578 1584 1590
2310 1 1584 1585 1590
2311 1 1584 1587 1590
2312 2 1584 1585 1586
2313 2 1584 1587 1588
2314 3 1578 1584 1589
2315 3 1590 1584 1589
2316 2 1586 1585 1596
2317 2 1588 1587 1596
2318 3 1584 1590 1596
2319 1 1590 1591 1596
2320 1 1590 1593 1596
2321 2 1590 1591 1592
2322 2 1590 1593 1594
2323 3 1584 1590 1595
2324 3 1596 1590 1595
2325 1 1597 1598 1602
2326 1 1597 1600 1602
2327 2 1597 1598 1599
2328 2 1597 1600 1601
2329 2 1599 1598 1608
2330 2 1601 1600 1608
2331 3 1597 1602 1608
2332 1 1602 1603 1608
2333 1 1602 1605 1608
2334 2 1602 1603 1604
2335 2 1602 1605 1606
2336 3 1597 1602 1607
2337 3 1608 1602 1607
2338 2 1604 1603 1614
2339 2 1606 1605 1614
2340 3 1602 1608 1614
2341 1 1608 1609 1614
2342 1 1608 1611 1614
2343 2 1608 1609 1610
2344 2 1608 1611 1612
2345 3 1602 1608 1613
2346 3 1614 1608 1613
2347 2 1610 1609 1620
2348 2 1612 1611 1620
2349 3 1608 1614 1620
2350 1 1614 1615 1620
2351 1 1614 1617 1620
2352 2 1614 1615 1616
2353 2 1614 1617 1618
2354 3 1608 1614 1619
2355 3 1620 1614 1619
2356 2 1616 1615 1626
2357 2 1618 1617 1626
2358 3 1614 1620 1626
2359 1 1620 1621 1626
2360 1 1620 1623 1626
2361 2 1620 1621 1622
2362 2 1620 1623 1624
2363 3 1614 1620 1625
2364 3 1626 1620 1625
2365 2 1622 1621 1632
2366 2 1624 1623 1632
2367 3 1620 1626 1632
2368 1 1626 1627 1632
2369 1 1626 1629 1632
2370 2 1626 1627 1628
2371 2 1626 1629 1630
2372 3 1620 1626 1631
2373 3 1632 1626 1631
2374 2 1628 1627 1638
2375 2 1630 1629 1638
2376 3 1626 1632 1638
2377 1 1632 1633 1638
2378 1 1632 1635 1638
2379 2 1632 1633 1634
2380 2 1632 1635 1636
2381 3 1626 1632 1637
2382 3 1638 1632 1637
2383 2 1634 1633 1644
2384 2 1636 1635 1644
2385 3 1632 1638 1644
2386 1 1638 1639 1644
2387 1 1638 1641 1644
2388 2 1638 1639 1640
2389 2 1638 1641 1642
2390 3 1632 1638 1643
2391 3 1644 1638 1643
2392 2 1640 1639 1650
2393 2 1642 1641 1650
2394 3 1638 1644 1650
2395 1 1644 1645 1650
2396 1 1644 1647 1650
2397 2 1644 1645 1646
2398 2 1644 1647 1648
2399 3 1638 1644 1649
2400 3 1650 1644 1649
2401 2 1646 1645 1656
2402 2 1648 1647 1656
2403 3 1644 1650 1656
2404 1 1650 1651 1656
2405 1 1650 1653 1656
2406 2 1650 1651 1652
2407 2 1650 1653 1654
2408 3 1644 1650 1655
2409 3 1656 1650 1655
2410 2 1652 1651 1662
2411 2 1654 1653 1662
2412 3 1650 1656 1662
2413 1 1656 1657 1662
2414 1 1656 1659 1662
2415 2 1656 1657 1658
2416 2 1656 1659 1660
2417 3 1650 1656 1661
2418 3 1662 1656 1661
2419 2 1658 1657 1668
2420 2 1660 1659 1668
2421 3 1656 1662 1668
2422 1 1662 1663 1668
2423 1 1662 1665 1668
2424 2 1662 1663 1664
2425 2 1662 1665 1666
2426 3 1656 1662 1667
2427 3 1668 1662 1667
2428 2 1664 1663 1674
2429 2 1666 1665 1674
2430 3 1662 1668 1674
2431 1 1668 1669 1674
2432 1 1668 1671 1674
2433 2 1668 1669 1670
2434 2 1668 1671 1672
2435 3 1662 1668 1673
2436 3 1674 1668 1673
2437 2 1670 1669 1680
2438 2 1672 1671 1680
2439 3 1668 1674 1680
2440 1 1674 1675 1680
2441 1 1674 1677 1680
2442 2 1674 1675 1676
2443 2 1674 1677 1678
2444 3 1668 1674 1679
2445 3 1680 1674 1679
2446 2 1676 1675 1686
2447 2 1678 1677 1686
2448 3 1674 1680 1686
2449 1 1680 1681 1686
2450 1 1680 1683 1686
2451 2 1680 1681 1682
2452 2 1680 1683 1684
2453 3 1674 1680 1685
2454 3 1686 1680 1685
2455 2 1682 1681 1692
2456 2 1684 1683 1692
2457 3 1680 1686 1692
2458 1 1686 1687 1692
2459 1 1686 1689 1692
2460 2 1686 1687 1688
2461 2 1686 1689 1690
2462 3 1680 1686 1691
2463 3 1692 1686 1691
2464 2 1688 1687 1698
2465 2 1690 1689 1698
2466 3 1686 1692 1698
2467 1 1692 1693 1698
2468 1 1692 1695 1698
2469 2 1692 1693 1694
2470 2 1692 1695 1696
2471 3 1686 1692 1697
2472 3 1698 1692 1697
2473 2 1694 1693 1704
2474 2 1696 1695 1704
2475 3 1692 1698 1704
2476 1 1698 1699 1704
2477 1 1698 1701 1704
2478 2 1698 1699 1700
2479 2 1698 1701 1702
2480 3 1692 1698 1703
2481 3 1704 1698 1703
2482 2 1700 1699 1710
2483 2 1702 1701 1710
2484 3 1698 1704 1710
2485 1 1704 1705 1710
2486 1 1704 1707 1710
2487 2 1704 1705 1706
2488 2 1704 1707 1708
2489 3 1698 1704 1709
2490 3 1710 1704 1709
2491 1 1711 1712 1716
2492 1 1711 1714 1716
2493 2 1711 1712 1713
2494 2 1711 1714 1715
2495 2 1713 1712 1722
2496 2 1715 1714 1722
2497 3 1711 1716 1722
2498 1 1716 1717 1722
2499 1 1716 1719 1722
2500 2 1716 1717 1718
2501 2 1716 1719 1720
2502 3 1711 1716 1721
2503 3 1722 1716 1721
2504 2 1718 1717 1728
2505 2 1720 1719 1728
2506 3 1716 1722 1728
2507 1 1722 1723 1728
2508 1 1722 1725 1728
2509 2 1722 1723 1724
2510 2 1722 1725 1726
2511 3 1716 1722 1727
2512 3 1728 1722 1727
2513 2 1724 1723 1734
2514 2 1726 1725 1734
2515 3 1722 1728 1734
2516 1 1728 1729 1734
2517 1 1728 1731 1734
2518 2 1728 1729 1730
2519 2 1728 1731 1732
2520 3 1722 1728 1733
2521 3 1734 1728 1733
2522 2 1730 1729 1740
2523 2 1732 1731 1740
2524 3 1728 1734 1740
2525 1 1734 1735 1740
2526 1 1734 1737 1740
2527 2 1734 1735 1736
2528 2 1734 1737 1738
2529 3 1728 1734 1739
2530 3 1740 1734 1739
2531 2 1736 1735 1746
2532 2 1738 1737 1746
2533 3 1734 1740 1746
2534 1 1740 1741 1746
2535 1 1740 1743 1746
2536 2 1740 1741 1742
2537 2 1740 1743 1744
2538 3 1734 1740 1745
2539 3 1746 1740 1745
2540 2 1742 1741 1752
2541 2 1744 1743 1752
2542 3 1740 1746 1752
2543 1 1746 1747 1752
2544 1 1746 1749 1752
2545 2 1746 1747 1748
2546 2 1746 1749 1750
2547 3 1740 1746 1751
2548 3 1752 1746 1751
2549 2 1748 1747 1758
2550 2 1750 1749 1758
2551 3 1746 1752 1758
2552 1 1752 1753 1758
2553 1 1752 1755 1758
2554 2 1752 1753 1754
2555 2 1752 1755 1756
2556 3 1746 1752 1757
2557 3 1758 1752 1757
2558 2 1754 1753 1764
2559 2 1756 1755 1764
2560 3 1752 1758 1764
2561 1 1758 1759 1764
2562 1 1758 1761 1764
2563 2 1758 1759 1760
2564 2 1758 1761 1762
2565 3 1752 1758 1763
2566 3 1764 1758 1763
2567 2 1760 1759 1770
2568 2 1762 1761 1770
2569 3 1758 1764 1770
2570 1 1764 1765 1770
2571 1 1764 1767 1770
2572 2 1764 1765 1766
2573 2 1764 1767 1768
2574 3 1758 1764 1769
2575 3 1770 1764 1769
2576 2 1766 1765 1776
2577 2 1768 1767 1776
2578 3 1764 1770 1776
2579 1 1770 1771 1776
2580 1 1770 1773 1776
2581 2 1770 1771 1772
2582 2 1770 1773 1774
2583 3 1764 1770 1775
2584 3 1776 1770 1775
2585 2 1772 1771 1782
2586 2 1774 1773 1782
2587 3 1770 1776 1782
2588 1 1776 1777 1782
2589 1 1776 1779 1782
2590 2 1776 1777 1778
2591 2 1776 1779 1780
2592 3 1770 1776 1781
2593 3 1782 1776 1781
2594 2 1778 1777 1788
2595 2 1780 1779 1788
2596 3 1776 1782 1788
2597 1 1782 1783 1788
2598 1 1782 1785 1788
2599 2 1782 1783 1784
2600 2 1782 1785 1786
2601 3 1776 1782 1787
2602 3 1788 1782 1787
2603 2 1784 1783 1794
2604 2 1786 1785 1794
2605 3 1782 1788 1794
2606 1 1788 1789 1794
2607 1 1788 1791 1794
2608 2 1788 1789 1790
2609 2 1788 1791 1792
2610 3 1782 1788 1793
2611 3 1794 1788 1793
2612 2 1790 1789 1800
2613 2 1792 1791 1800
2614 3 1788 1794 1800
2615 1 1794 1795 1800
2616 1 1794 1797 1800
2617 2 1794 1795 1796
2618 2 1794 1797 1798
2619 3 1788 1794 1799
2620 3 1800 1794 1799
2621 2 1796 1795 1806
2622 2 1798 1797 1806
2623 3 1794 1800 1806
2624 1 1800 1801 1806
2625 1 1800 1803 1806
2626 2 1800 1801 1802
2627 2 1800 1803 1804
2628 3 1794 1800 1805
2629 3 1806 1800 1805
2630 2 1802 1801 1812
2631 2 1804 1803 1812
2632 3 1800 1806 1812
2633 1 1806 1807 1812
2634 1 1806 1809 1812
2635 2 1806 1807 1808
2636 2 1806 1809 1810
2637 3 1800 1806 1811
2638 3 1812 1806 1811
2639 2 1808 1807 1818
2640 2 1810 1809 1818
2641 3 1806 1812 1818
2642 1 1812 1813 1818
2643 1 1812 1815 1818
2644 2 1812 1813 1814
2645 2 1812 1815 1816
2646 3 1806 1812 1817
2647 3 1818 1812 1817
2648 2 1814 1813 1824
2649 2 1816 1815 1824
2650 3 1812 1818 1824
2651 1 1818 1819 1824
2652 1 1818 1821 1824
2653 2 1818 1819 1820
2654 2 1818 1821 1822
2655 3 1812 1818 1823
2656 3 1824 1818 1823
2657 1 1825 1826 1830
2658 1 1825 1828 1830
2659 2 1825 1826 1827
2660 2 1825 1828 1829
2661 2 1827 1826 1836
2662 2 1829 1828 1836
2663 3 1825 1830 1836
2664 1 1830 1831 1836
2665 1 1830 1833 1836
2666 2 1830 1831 1832
2667 2 1830 1833 1834
2668 3 1825 1830 1835
2669 3 1836 1830 1835
2670 2 1832 1831 1842
2671 2 1834 1833 1842
2672 3 1830 1836 1842
2673 1 1836 1837 1842
2674 1 1836 1839 1842
2675 2 1836 1837 1838
2676 2 1836 1839 1840
2677 3 1830 1836 1841
2678 3 1842 1836 1841
2679 2 1838 1837 1848
2680 2 1840 1839 1848
2681 3 1836 1842 1848
2682 1 1842 1843 1848
2683 1 1842 1845 1848
2684 2 1842 1843 1844
2685 2 1842 1845 1846
2686 3 1836 1842 1847
2687 3 1848 1842 1847
2688 2 1844 1843 1854
2689 2 1846 1845 1854
2690 3 1842 1848 1854
2691 1 1848 1849 1854
2692 1 1848 1851 1854
2693 2 1848 1849 1850
2694 2 1848 1851 1852
2695 3 1842 1848 1853
2696 3 1854 1848 1853
2697 2 1850 1849 1860
2698 2 1852 1851 1860
2699 3 1848 1854 1860
2700 1 1854 1855 1860
2701 1 1854 1857 1860
2702 2 1854 1855 1856
2703 2 1854 1857 1858
2704 3 1848 1854 1859
2705 3 1860 1854 1859
2706 2 1856 1855 1866
2707 2 1858 1857 1866
2708 3 1854 1860 1866
2709 1 1860 1861 1866
2710 1 1860 1863 1866
2711 2 1860 1861 1862
2712 2 1860 1863 1864
2713 3 1854 1860 1865
2714 3 1866 1860 1865
2715 2 1862 1861 1872
2716 2 1864 1863 1872
2717 3 1860 1866 1872
2718 1 1866 1867 1872
2719 1 1866 1869 1872
2720 2 1866 1867 1868
2721 2 1866 1869 1870
2722 3 1860 1866 1871
2723 3 1872 1866 1871
2724 2 1868 1867 1878
2725 2 1870 1869 1878
2726 3 1866 1872 1878
2727 1 1872 1873 1878
2728 1 1872 1875 1878
2729 2 1872 1873 1874
2730 2 1872 1875 1876
2731 3 1866 1872 1877
2732 3 1878 1872 1877
2733 2 1874 1873 1884
2734 2 1876 1875 1884
2735 3 1872 1878 1884
2736 1 1878 1879 1884
2737 1 1878 1881 1884
2738 2 1878 1879 1880
2739 2 1878 1881 1882
2740 3 1872 1878 1883
2741 3 1884 1878 1883
2742 2 1880 1879 1890
2743 2 1882 1881 1890
2744 3 1878 1884 1890
2745 1 1884 1885 1890
2746 1 1884 1887 1890
2747 2 1884 1885 1886
2748 2 1884 1887 1888
2749 3 1878 1884 1889
2750 3 1890 1884 1889
2751 2 1886 1885 1896
2752 2 1888 1887 1896
2753 3 1884 1890 1896
2754 1 1890 1891 1896
2755 1 1890 1893 1896
2756 2 1890 1891 1892
2757 2 1890 1893 1894
2758 3 1884 1890 1895
2759 3 1896 1890 1895
2760 2 1892 1891 1902
2761 2 1894 1893 1902
2762 3 1890 1896 1902
2763 1 1896 1897 1902
2764 1 1896 1899 1902
2765 2 1896 1897 1898
2766 2 1896 1899 1900
2767 3 1890 1896 1901
2768 3 1902 1896 1901
2769 2 1898 1897 1908
2770 2 1900 1899 1908
2771 3 1896 1902 1908
2772 1 1902 1903 1908
2773 1 1902 1905 1908
2774 2 1902 1903 1904
2775 2 1902 1905 1906
2776 3 1896 1902 1907
2777 3 1908 1902 1907
2778 2 1904 1903 1914
2779 2 1906 1905 1914
2780 3 1902 1908 1914
2781 1 1908 1909 1914
2782 1 1908 1911 1914
2783 2 1908 1909 1910
2784 2 1908 1911 1912
2785 3 1902 1908 1913
2786 3 1914 1908 1913
2787 2 1910 1909 1920
2788 2 1912 1911 1920
2789 3 1908 1914 1920
2790 1 1914 1915 1920
2791 1 1914 1917 1920
2792 2 1914 1915 1916
2793 2 1914 1917 1918
2794 3 1908 1914 1919
2795 3 1920 1914 1919
2796 2 1916 1915 1926
2797 2 1918 1917 1926
2798 3 1914 1920 1926
2799 1 1920 1921 1926
2800 1 1920 1923 1926
2801 2 1920 1921 1922
2802 2 1920 1923 1924
2803 3 1914 1920 1925
2804 3 1926 1920 1925
2805 2 1922 1921 1932
2806 2 1924 1923 1932
2807 3 1920 1926 1932
2808 1 1926 1927 1932
2809 1 1926 1929 1932
2810 2 1926 1927 1928
2811 2 1926 1929 1930
2812 3 1920 1926 1931
2813 3 1932 1926 1931
2814 2 1928 1927 1938
2815 2 1930 1929 1938
2816 3 1926 1932 1938
2817 1 1932 1933 1938
2818 1 1932 1935 1938
2819 2 1932 1933 1934
2820 2 1932 1935 1936
2821 3 1926 1932 1937
2822 3 1938 1932 1937
2823 1 1939 1940 1944
2824 1 1939 1942 1944
2825 2 1939 1940 1941
2826 2 1939 1942 1943
2827 2 1941 1940 1950
2828 2 1943 1942 1950
2829 3 1939 1944 1950
2830 1 1944 1945 1950
2831 1 1944 1947 1950
2832 2 1944 1945 1946
2833 2 1944 1947 1948
2834 3 1939 1944 1949
2835 3 1950 1944 1949
2836 2 1946 1945 1956
2837 2 1948 1947 1956
2838 3 1944 1950 1956
2839 1 1950 1951 1956
2840 1 1950 1953 1956
2841 2 1950 1951 1952
2842 2 1950 1953 1954
2843 3 1944 1950 1955
2844 3 1956 1950 1955
2845 2 1952 1951 1962
2846 2 1954 1953 1962
2847 3 1950 1956 1962
2848 1 1956 1957 1962
2849 1 1956 1959 1962
2850 2 1956 1957 1958
2851 2 1956 1959 1960
2852 3 1950 1956 1961
2853 3 1962 1956 1961
2854 2 1958 1957 1968
2855 2 1960 1959 1968
2856 3 1956 1962 1968
2857 1 1962 1963 1968
2858 1 1962 1965 1968
2859 2 1962 1963 1964
2860 2 1962 1965 1966
2861 3 1956 1962 1967
2862 3 1968 1962 1967
2863 2 1964 1963 1974
2864 2 1966 1965 1974
2865 3 1962 1968 1974
2866 1 1968 1969 1974
2867 1 1968 1971 1974
2868 2 1968 1969 1970
2869 2 1968 1971 1972
2870 3 1962 1968 1973
2871 3 1974 1968 1973
2872 2 1970 1969 1980
2873 2 1972 1971 1980
2874 3 1968 1974 1980
2875 1 1974 1975 1980
2876 1 1974 1977 1980
2877 2 1974 1975 1976
2878 2 1974 1977 1978
2879 3 1968 1974 1979
2880 3 1980 1974 1979
2881 2 1976 1975 1986
2882 2 1978 1977 1986
2883 3 1974 1980 1986
2884 1 1980 1981 1986
2885 1 1980 1983 1986
2886 2 1980 1981 1982
2887 2 1980 1983 1984
2888 3 1974 1980 1985
2889 3 1986 1980 1985
2890 2 1982 1981 1992
2891 2 1984 1983 1992
2892 3 1980 1986 1992
2893 1 1986 1987 1992
2894 1 1986 1989 1992
2895 2 1986 1987 1988
2896 2 1986 1989 1990
2897 3 1980 1986 1991
2898 3 1992 1986 1991
2899 2 1988 1987 1998
2900 2 1990 1989 1998
2901 3 1986 1992 1998
2902 1 1992 1993 1998
2903 1 1992 1995 1998
2904 2 1992 1993 1994
2905 2 1992 1995 1996
2906 3 1986 1992 1997
2907 3 1998 1992 1997
2908 2 1994 1993 2004
2909 2 1996 1995 2004
2910 3 1992 1998 2004
2911 1 1998 1999 2004
2912 1 1998 2001 2004
2913 2 1998 1999 2000
2914 2 1998 2001 2002
2915 3 1992 1998 2003
2916 3 2004 1998 2003
2917 2 2000 1999 2010
2918 2 2002 2001 2010
2919 3 1998 2004 2010
2920 1 2004 2005 2010
2921 1 2004 2007 2010
2922 2 2004 2005 2006
2923 2 2004 2007 2008
2924 3 1998 2004 2009
2925 3 2010 2004 2009
2926 2 2006 2005 2016
2927 2 2008 2007 2016
2928 3 2004 2010 2016
2929 1 2010 2011 2016
2930 1 2010 2013 2016
2931 2 2010 2011 2012
2932 2 2010 2013 2014
2933 3 2004 2010 2015
2934 3 2016 2010 2015
2935 2 2012 2011 2022
2936 2 2014 2013 2022
2937 3 2010 2016 2022
2938 1 2016 2017 2022
2939 1 2016 2019 2022
2940 2 2016 2017 2018
2941 2 2016 2019 2020
2942 3 2010 2016 2021
2943 3 2022 2016 2021
2944 2 2018 2017 2028
2945 2 2020 2019 2028
2946 3 2016 2022 2028
2947 1 2022 2023 2028
2948 1 2022 2025 2028
2949 2 2022 2023 2024
2950 2 2022 2025 2026
2951 3 2016 2022 2027
2952 3 2028 2022 2027
2953 2 2024 2023 2034
2954 2 2026 2025 2034
2955 3 2022 2028 2034
2956 1 2028 2029 2034
2957 1 2028 2031 2034
2958 2 2028 2029 2030
2959 2 2028 2031 2032
2960 3 2022 2028 2033
2961 3 2034 2028 2033
2962 2 2030 2029 2040
2963 2 2032 2031 2040
2964 3 2028 2034 2040
2965 1 2034 2035 2040
2966 1 2034 2037 2040
2967 2 2034 2035 2036
2968 2 2034 2037 2038
2969 3 2028 2034 2039
2970 3 2040 2034 2039
2971 2 2036 2035 2046
2972 2 2038 2037 2046
2973 3 2034 2040 2046
2974 1 2040 2041 2046
2975 1 2040 2043 2046
2976 2 2040 2041 2042
2977 2 2040 2043 2044
2978 3 2034 2040 2045
2979 3 2046 2040 2045
2980 2 2042 2041 2052
2981 2 2044 2043 2052
2982 3 2040 2046 2052
2983 1 2046 2047 2052
2984 1 2046 2049 2052
2985 2 2046 2047 2048
2986 2 2046 2049 2050
2987 3 2040 2046 2051
2988 3 2052 2046 2051
2989 1 2053 2054 2058
2990 1 2053 2056 2058
2991 2 2053 2054 2055
2992 2 2053 2056 2057
2993 2 2055 2054 2064
2994 2 2057 2056 2064
2995 3 2053 2058 2064
2996 1 2058 2059 2064
2997 1 2058 2061 2064
2998 2 2058 2059 2060
2999 2 2058 2061 2062
3000 3 2053 2058 2063
3001 3 2064 2058 2063
3002 2 2060 2059 2070
3003 2 2062 2061 2070
3004 3 2058 2064 2070
3005 1 2064 2065 2070
3006 1 2064 2067 2070
3007 2 2064 2065 2066
3008 2 2064 2067 2068
3009 3 2058 2064 2069
3010 3 2070 2064 2069
3011 2 2066 2065 2076
3012 2 2068 2067 2076
3013 3 2064 2070 2076
3014 1 2070 2071 2076
3015 1 2070 2073 2076
3016 2 2070 2071 2072
3017 2 2070 2073 2074
3018 3 2064 2070 2075
3019 3 2076 2070 2075
3020 2 2072 2071 2082
3021 2 2074 2073 2082
3022 3 2070 2076 2082
3023 1 2076 2077 2082
3024 1 2076 2079 2082
3025 2 2076 2077 2078
3026 2 2076 2079 2080
3027 3 2070 2076 2081
3028 3 2082 2076 2081
3029 2 2078 2077 2088
3030 2 2080 2079 2088
3031 3 2076 2082 2088
3032 1 2082 2083 2088
3033 1 2082 2085 2088
3034 2 2082 2083 2084
3035 2 2082 2085 2086
3036 3 2076 2082 2087
3037 3 2088 2082 2087
3038 2 2084 2083 2094
3039 2 2086 2085 2094
3040 3 2082 2088 2094
3041 1 2088 2089 2094
3042 1 2088 2091 2094
3043 2 2088 2089 2090
3044 2 2088 2091 2092
3045 3 2082 2088 2093
3046 3 2094 2088 2093
3047 2 2090 2089 2100
3048 2 2092 2091 2100
3049 3 2088 2094 2100
3050 1 2094 2095 2100
3051 1 2094 2097 2100
3052 2 2094 2095 2096
3053 2 2094 2097 2098
3054 3 2088 2094 2099
3055 3 2100 2094 2099
3056 2 2096 2095 2106
3057 2 2098 2097 2106
3058 3 2094 2100 2106
3059 1 2100 2101 2106
3060 1 2100 2103 2106
3061 2 2100 2101 2102
3062 2 2100 2103 2104
3063 3 2094 2100 2105
3064 3 2106 2100 2105
3065 2 2102 2101 2112
3066 2 2104 2103 2112
3067 3 2100 2106 2112
3068 1 2106 2107 2112
3069 1 2106 2109 2112
3070 2 2106 2107 2108
3071 2 2106 2109 2110
3072 3 2100 2106 2111
3073 3 2112 2106 2111
3074 2 2108 2107 2118
3075 2 2110 2109 2118
3076 3 2106 2112 2118
3077 1 2112 2113 2118
3078 1 2112 2115 2118
3079 2 2112 2113 2114
3080 2 2112 2115 2116
3081 3 2106 2112 2117
3082 3 2118 2112 2117
3083 2 2114 2113 2124
3084 2 2116 2115 2124
3085 3 2112 2118 2124
3086 1 2118 2119 2124
3087 1 2118 2121 2124
3088 2 2118 2119 2120
3089 2 2118 2121 2122
3090 3 2112 2118 2123
3091 3 2124 2118 2123
3092 2 2120 2119 2130
3093 2 2122 2121 2130
3094 3 2118 2124 2130
3095 1 2124 2125 2130
3096 1 2124 2127 2130
3097 2 2124 2125 2126
3098 2 2124 2127 2128
3099 3 2118 2124 2129
3100 3 2130 2124 2129
3101 2 2126 2125 2136
3102 2 2128 2127 2136
3103 3 2124 2130 2136
3104 1 2130 2131 2136
3105 1 2130 2133 2136
3106 2 2130 2131 2132
3107 2 2130 2133 2134
3108 3 2124 2130 2135
3109 3 2136 2130 2135
3110 2 2132 2131 2142
3111 2 2134 2133 2142
3112 3 2130 2136 2142
3113 1 2136 2137 2142
3114 1 2136 2139 2142
3115 2 2136 2137 2138
3116 2 2136 2139 2140
3117 3 2130 2136 2141
3118 3 2142 2136 2141
3119 2 2138 2137 2148
3120 2 2140 2139 2148
3121 3 2136 2142 2148
3122 1 2142 2143 2148
3123 1 2142 2145 2148
3124 2 2142 2143 2144
3125 2 2142 2145 2146
3126 3 2136 2142 2147
3127 3 2148 2142 2147
3128 2 2144 2143 2154
3129 2 2146 2145 2154
3130 3 2142 2148 2154
3131 1 2148 2149 2154
3132 1 2148 2151 2154
3133 2 2148 2149 2150
3134 2 2148 2151 2152
3135 3 2142 2148 2153
3136 3 2154 2148 2153
3137 2 2150 2149 2160
3138 2 2152 2151 2160
3139 3 2148 2154 2160
3140 1 2154 2155 2160
3141 1 2154 2157 2160
3142 2 2154 2155 2156
3143 2 2154 2157 2158
3144 3 2148 2154 2159
3145 3 2160 2154 2159
3146 2 2156 2155 2166
3147 2 2158 2157 2166
3148 3 2154 2160 2166
3149 1 2160 2161 2166
3150 1 2160 2163 2166
3151 2 2160 2161 2162
3152 2 2160 2163 2164
3153 3 2154 2160 2165
3154 3 2166 2160 2165
3155 1 2167 2168 2172
3156 1 2167 2170 2172
3157 2 2167 2168 2169
3158 2 2167 2170 2171
3159 2 2169 2168 2178
3160 2 2171 2170 2178
3161 3 2167 2172 2178
3162 1 2172 2173 2178
3163 1 2172 2175 2178
3164 2 2172 2173 2174
3165 2 2172 2175 2176
3166 3 2167 2172 2177
3167 3 2178 2172 2177
3168 2 2174 2173 2184
3169 2 2176 2175 2184
3170 3 2172 2178 2184
3171 1 2178 2179 2184
3172 1 2178 2181 2184
3173 2 2178 2179 2180
3174 2 2178 2181 2182
3175 3 2172 2178 2183
3176 3 2184 2178 2183
3177 2 2180 2179 2190
3178 2 2182 2181 2190
3179 3 2178 2184 2190
3180 1 2184 2185 2190
3181 1 2184 2187 2190
3182 2 2184 2185 2186
3183 2 2184 2187 2188
3184 3 2178 2184 2189
3185 3 2190 2184 2189
3186 2 2186 2185 2196
3187 2 2188 2187 2196
3188 3 2184 2190 2196
3189 1 2190 2191 2196
3190 1 2190 2193 2196
3191 2 2190 2191 2192
3192 2 2190 2193 2194
3193 3 2184 2190 2195
3194 3 2196 2190 2195
3195 2 2192 2191 2202
3196 2 2194 2193 2202
3197 3 2190 2196 2202
3198 1 2196 2197 2202
3199 1 2196 2199 2202
3200 2 2196 2197 2198
3201 2 2196 2199 2200
3202 3 2190 2196 2201
3203 3 2202 2196 2201
3204 2 2198 2197 2208
3205 2 2200 2199 2208
3206 3 2196 2202 2208
3207 1 2202 2203 2208
3208 1 2202 2205 2208
3209 2 2202 2203 2204
3210 2 2202 2205 2206
3211 3 2196 2202 2207
3212 3 2208 2202 2207
3213 2 2204 2203 2214
3214 2 2206 2205 2214
3215 3 2202 2208 2214
3216 1 2208 2209 2214
3217 1 2208 2211 2214
3218 2 2208 2209 2210
3219 2 2208 2211 2212
3220 3 2202 2208 2213
3221 3 2214 2208 2213
3222 2 2210 2209 2220
3223 2 2212 2211 2220
3224 3 2208 2214 2220
3225 1 2214 2215 2220
3226 1 2214 2217 2220
3227 2 2214 2215 2216
3228 2 2214 2217 2218
3229 3 2208 2214 2219
3230 3 2220 2214 2219
3231 2 2216 2215 2226
3232 2 2218 2217 2226
3233 3 2214 2220 2226
3234 1 2220 2221 2226
3235 1 2220 2223 2226
3236 2 2220 2221 2222
3237 2 2220 2223 2224
3238 3 2214 2220 2225
3239 3 2226 2220 2225
3240 2 2222 2221 2232
3241 2 2224 2223 2232
3242 3 2220 2226 2232
3243 1 2226 2227 2232
3244 1 2226 2229 2232
3245 2 2226 2227 2228
3246 2 2226 2229 2230
3247 3 2220 2226 2231
3248 3 2232 2226 2231
3249 2 2228 2227 2238
3250 2 2230 2229 2238
3251 3 2226 2232 2238
3252 1 2232 2233 2238
3253 1 2232 2235 2238
3254 2 2232 2233 2234
3255 2 2232 2235 2236
3256 3 2226 2232 2237
3257 3 2238 2232 2237
3258 2 2234 2233 2244
3259 2 2236 2235 2244
3260 3 2232 2238 2244
3261 1 2238 2239 2244
3262 1 2238 2241 2244
3263 2 2238 2239 2240
3264 2 2238 2241 2242
3265 3 2232 2238 2243
3266 3 2244 2238 2243
3267 2 2240 2239 2250
3268 2 2242 2241 2250
3269 3 2238 2244 2250
3270 1 2244 2245 2250
3271 1 2244 2247 2250
3272 2 2244 2245 2246
3273 2 2244 2247 2248
3274 3 2238 2244 2249
3275 3 2250 2244 2249
3276 2 2246 2245 2256
3277 2 2248 2247 2256
3278 3 2244 2250 2256
3279 1 2250 2251 2256
3280 1 2250 2253 2256
3281 2 2250 2251 2252
3282 2 2250 2253 2254
3283 3 2244 2250 2255
3284 3 2256 2250 2255
3285 2 2252 2251 2262
3286 2 2254 2253 2262
3287 3 2250 2256 2262
3288 1 2256 2257 2262
3289 1 2256 2259 2262
3290 2 2256 2257 2258
3291 2 2256 2259 2260
3292 3 2250 2256 2261
3293 3 2262 2256 2261
3294 2 2258 2257 2268
3295 2 2260 2259 2268
3296 3 2256 2262 2268
3297 1 2262 2263 2268
3298 1 2262 2265 2268
3299 2 2262 2263 2264
3300 2 2262 2265 2266
3301 3 2256 2262 2267
3302 3 2268 2262 2267
3303 2 2264 2263 2274
3304 2 2266 2265 2274
3305 3 2262 2268 2274
3306 1 2268 2269 2274
3307 1 2268 2271 2274
3308 2 2268 2269 2270
3309 2 2268 2271 2272
3310 3 2262 2268 2273
3311 3 2274 2268 2273
3312 2 2270 2269 2280
3313 2 2272 2271 2280
3314 3 2268 2274 2280
3315 1 2274 2275 2280
3316 1 2274 2277 2280
3317 2 2274 2275 2276
3318 2 2274 2277 2278
3319 3 2268 2274 2279
3320 3 2280 2274 2279
3321 1 2281 2282 2286
3322 1 2281 2284 2286
3323 2 2281 2282 2283
3324 2 2281 2284 2285
3325 2 2283 2282 2292
3326 2 2285 2284 2292
3327 3 2281 2286 2292
3328 1 2286 2287 2292
3329 1 2286 2289 2292
3330 2 2286 2287 2288
3331 2 2286 2289 2290
3332 3 2281 2286 2291
3333 3 2292 2286 2291
3334 2 2288 2287 2298
3335 2 2290 2289 2298
3336 3 2286 2292 2298
3337 1 2292 2293 2298
3338 1 2292 2295 2298
3339 2 2292 2293 2294
3340 2 2292 2295 2296
3341 3 2286 2292 2297
3342 3 2298 2292 2297
3343 2 2294 2293 2304
3344 2 2296 2295 2304
3345 3 2292 2298 2304
3346 1 2298 2299 2304
3347 1 2298 2301 2304
3348 2 2298 2299 2300
3349 2 2298 2301 2302
3350 3 2292 2298 2303
3351 3 2304 2298 2303
3352 2 2300 2299 2310
3353 2 2302 2301 2310
3354 3 2298 2304 2310
3355 1 2304 2305 2310
3356 1 2304 2307 2310
3357 2 2304 2305 2306
3358 2 2304 2307 2308
3359 3 2298 2304 2309
3360 3 2310 2304 2309
3361 2 2306 2305 2316
3362 2 2308 2307 2316
3363 3 2304 2310 2316
3364 1 2310 2311 2316
3365 1 2310 2313 2316
3366 2 2310 2311 2312
3367 2 2310 2313 2314
3368 3 2304 2310 2315
3369 3 2316 2310 2315
3370 2 2312 2311 2322
3371 2 2314 2313 2322
3372 3 2310 2316 2322
3373 1 2316 2317 2322
3374 1 2316 2319 2322
3375 2 2316 2317 2318
3376 2 2316 2319 2320
3377 3 2310 2316 2321
3378 3 2322 2316 2321
3379 2 2318 2317 2328
3380 2 2320 2319 2328
3381 3 2316 2322 2328
3382 1 2322 2323 2328
3383 1 2322 2325 2328
3384 2 2322 2323 2324
3385 2 2322 2325 2326
3386 3 2316 2322 2327
3387 3 2328 2322 2327
3388 2 2324 2323 2334
3389 2 2326 2325 2334
3390 3 2322 2328 2334
3391 1 2328 2329 2334
3392 1 2328 2331 2334
3393 2 2328 2329 2330
3394 2 2328 2331 2332
3395 3 2322 2328 2333
3396 3 2334 2328 2333
3397 2 2330 2329 2340
3398 2 2332 2331 2340
3399 3 2328 2334 2340
3400 1 2334 2335 2340
3401 1 2334 2337 2340
3402 2 2334 2335 2336
3403 2 2334 2337 2338
3404 3 2328 2334 2339
3405 3 2340 2334 2339
3406 2 2336 2335 2346
3407 2 2338 2337 2346
3408 3 2334 2340 2346
3409 1 2340 2341 2346
3410 1 2340 2343 2346
3411 2 2340 2341 2342
3412 2 2340 2343 2344
3413 3 2334 2340 2345
3414 3 2346 2340 2345
3415 2 2342 2341 2352
3416 2 2344 2343 2352
3417 3 2340 2346 2352
3418 1 2346 2347 2352
3419 1 2346 2349 2352
3420 2 2346 2347 2348
3421 2 2346 2349 2350
3422 3 2340 2346 2351
3423 3 2352 2346 2351
3424 2 2348 2347 2358
3425 2 2350 2349 2358
3426 3 2346 2352 2358
3427 1 2352 2353 2358
3428 1 2352 2355 2358
3429 2 2352 2353 2354
3430 2 2352 2355 2356
3431 3 2346 2352 2357
3432 3 2358 2352 2357
3433 2 2354 2353 2364
3434 2 2356 2355 2364
3435 3 2352 2358 2364
3436 1 2358 2359 2364
3437 1 2358 2361 2364
3438 2 2358 2359 2360
3439 2 2358 2361 2362
3440 3 2352 2358 2363
3441 3 2364 2358 2363
3442 2 2360 2359 2370
3443 2 2362 2361 2370
3444 3 2358 2364 2370
3445 1 2364 2365 2370
3446 1 2364 2367 2370
3447 2 2364 2365 2366
3448 2 2364 2367 2368
3449 3 2358 2364 2369
3450 3 2370 2364 2369
3451 2 2366 2365 2376
3452 2 2368 2367 2376
3453 3 2364 2370 2376
3454 1 2370 2371 2376
3455 1 2370 2373 2376
3456 2 2370 2371 2372
3457 2 2370 2373 2374
3458 3 2364 2370 2375
3459 3 2376 2370 2375
3460 2 2372 2371 2382
3461 2 2374 2373 2382
3462 3 2370 2376 2382
3463 1 2376 2377 2382
3464 1 2376 2379 2382
3465 2 2376 2377 2378
3466 2 2376 2379 2380
3467 3 2370 2376 2381
3468 3 2382 2376 2381
3469 2 2378 2377 2388
3470 2 2380 2379 2388
3471 3 2376 2382 2388
3472 1 2382 2383 2388
3473 1 2382 2385 2388
3474 2 2382 2383 2384
3475 2 2382 2385 2386
3476 3 2376 2382 2387
3477 3 2388 2382 2387
3478 2 2384 2383 2394
3479 2 2386 2385 2394
3480 3 2382 2388 2394
3481 1 2388 2389 2394
3482 1 2388 2391 2394
3483 2 2388 2389 2390
3484 2 2388 2391 2392
3485 3 2382 2388 2393
3486 3 2394 2388 2393
3487 1 2395 2396 2400
3488 1 2395 2398 2400
3489 2 2395 2396 2397
3490 2 2395 2398 2399
3491 2 2397 2396 2406
3492 2 2399 2398 2406
3493 3 2395 2400 2406
3494 1 2400 2401 2406
3495 1 2400 2403 2406
3496 2 2400 2401 2402
3497 2 2400 2403 2404
3498 3 2395 2400 2405
3499 3 2406 2400 2405
3500 2 2402 2401 2412
3501 2 2404 2403 2412
3502 3 2400 2406 2412
3503 1 2406 2407 2412
3504 1 2406 2409 2412
3505 2 2406 2407 2408
3506 2 2406 2409 2410
3507 3 2400 2406 2411
3508 3 2412 2406 2411
3509 2 2408 2407 2418
3510 2 2410 2409 2418
3511 3 2406 2412 2418
3512 1 2412 2413 2418
3513 1 2412 2415 2418
3514 2 2412 2413 2414
3515 2 2412 2415 2416
3516 3 2406 2412 2417
3517 3 2418 2412 2417
3518 2 2414 2413 2424
3519 2 2416 2415 2424
3520 3 2412 2418 2424
3521 1 2418 2419 2424
3522 1 2418 2421 2424
3523 2 2418 2419 2420
3524 2 2418 2421 2422
3525 3 2412 2418 2423
3526 3 2424 2418 2423
3527 2 2420 2419 2430
3528 2 2422 2421 2430
3529 3 2418 2424 2430
3530 1 2424 2425 2430
3531 1 2424 2427 2430
3532 2 2424 2425 2426
3533 2 2424 2427 2428
3534 3 2418 2424 2429
3535 3 2430 2424 2429
3536 2 2426 2425 2436
3537 2 2428 2427 2436
3538 3 2424 2430 2436
3539 1 2430 2431 2436
3540 1 2430 2433 2436
3541 2 2430 2431 2432
3542 2 2430 2433 2434
3543 3 2424 2430 2435
3544 3 2436 2430 2435
3545 2 2432 2431 2442
3546 2 2434 2433 2442
3547 3 2430 2436 2442
3548 1 2436 2437 2442
3549 1 2436 2439 2442
3550 2 2436 2437 2438
3551 2 2436 2439 2440
3552 3 2430 2436 2441
3553 3 2442 2436 2441
3554 2 2438 2437 2448
3555 2 2440 2439 2448
3556 3 2436 2442 2448
3557 1 2442 2443 2448
3558 1 2442 2445 2448
3559 2 2442 2443 2444
3560 2 2442 2445 2446
3561 3 2436 2442 2447
3562 3 2448 2442 2447
3563 2 2444 2443 2454
3564 2 2446 2445 2454
3565 3 2442 2448 2454
3566 1 2448 2449 2454
3567 1 2448 2451 2454
3568 2 2448 2449 2450
3569 2 2448 2451 2452
3570 3 2442 2448 2453
3571 3 2454 2448 2453
3572 2 2450 2449 2460
3573 2 2452 2451 2460
3574 3 2448 2454 2460
3575 1 2454 2455 2460
3576 1 2454 2457 2460
3577 2 2454 2455 2456
3578 2 2454 2457 2458
3579 3 2448 2454 2459
3580 3 2460 2454 2459
3581 2 2456 2455 2466
3582 2 2458 2457 2466
3583 3 2454 2460 2466
3584 1 2460 2461 2466
3585 1 2460 2463 2466
3586 2 2460 2461 2462
3587 2 2460 2463 2464
3588 3 2454 2460 2465
3589 3 2466 2460 2465
3590 2 2462 2461 2472
3591 2 2464 2463 2472
3592 3 2460 2466 2472
3593 1 2466 2467 2472
3594 1 2466 2469 2472
3595 2 2466 2467 2468
3596 2 2466 2469 2470
3597 3 2460 2466 2471
3598 3 2472 2466 2471
3599 2 2468 2467 2478
3600 2 2470 2469 2478
3601 3 2466 2472 2478
3602 1 2472 2473 2478
3603 1 2472 2475 2478
3604 2 2472 2473 2474
3605 2 2472 2475 2476
3606 3 2466 2472 2477
3607 3 2478 2472 2477
3608 2 2474 2473 2484
3609 2 2476 2475 2484
3610 3 2472 2478 2484
3611 1 2478 2479 2484
3612 1 2478 2481 2484
3613 2 2478 2479 2480
3614 2 2478 2481 2482
3615 3 2472 2478 2483
3616 3 2484 2478 2483
3617 2 2480 2479 2490
3618 2 2482 2481 2490
3619 3 2478 2484 2490
3620 1 2484 2485 2490
3621 1 2484 2487 2490
3622 2 2484 2485 2486
3623 2 2484 2487 2488
3624 3 2478 2484 2489
3625 3 2490 2484 2489
3626 2 2486 2485 2496
3627 2 2488 2487 2496
3628 3 2484 2490 2496
3629 1 2490 2491 2496
3630 1 2490 2493 2496
3631 2 2490 2491 2492
3632 2 2490 2493 2494
3633 3 2484 2490 2495
3634 3 2496 2490 2495
3635 2 2492 2491 2502
3636 2 2494 2493 2502
3637 3 2490 2496 2502
3638 1 2496 2497 2502
3639 1 2496 2499 2502
3640 2 2496 2497 2498
3641 2 2496 2499 2500
3642 3 2490 2496 2501
3643 3 2502 2496 2501
3644 2 2498 2497 2508
3645 2 2500 2499 2508
3646 3 2496 2502 2508
3647 1 2502 2503 2508
3648 1 2502 2505 2508
3649 2 2502 2503 2504
3650 2 2502 2505 2506
3651 3 2496 2502 2507
3652 3 2508 2502 2507
3653 1 2509 2510 2514
3654 1 2509 2512 2514
3655 2 2509 2510 2511
3656 2 2509 2512 2513
3657 2 2511 2510 2520
3658 2 2513 2512 2520
3659 3 2509 2514 2520
3660 1 2514 2515 2520
3661 1 2514 2517 2520
3662 2 2514 2515 2516
3663 2 2514 2517 2518
3664 3 2509 2514 2519
3665 3 2520 2514 2519
3666 2 2516 2515 2526
3667 2 2518 2517 2526
3668 3 2514 2520 2526
3669 1 2520 2521 2526
3670 1 2520 2523 2526
3671 2 2520 2521 2522
3672 2 2520 2523 2524
3673 3 2514 2520 2525
3674 3 2526 2520 2525
3675 2 2522 2521 2532
3676 2 2524 2523 2532
3677 3 2520 2526 2532
3678 1 2526 2527 2532
3679 1 2526 2529 2532
3680 2 2526 2527 2528
3681 2 2526 2529 2530
3682 3 2520 2526 2531
3683 3 2532 2526 2531
3684 2 2528 2527 2538
3685 2 2530 2529 2538
3686 3 2526 2532 2538
3687 1 2532 2533 2538
3688 1 2532 2535 2538
3689 2 2532 2533 2534
3690 2 2532 2535 2536
3691 3 2526 2532 2537
3692 3 2538 2532 2537
3693 2 2534 2533 2544
3694 2 2536 2535 2544
3695 3 2532 2538 2544
3696 1 2538 2539 2544
3697 1 2538 2541 2544
3698 2 2538 2539 2540
3699 2 2538 2541 2542
3700 3 2532 2538 2543
3701 3 2544 2538 2543
3702 2 2540 2539 2550
3703 2 2542 2541 2550
3704 3 2538 2544 2550
3705 1 2544 2545 2550
3706 1 2544 2547 2550
3707 2 2544 2545 2546
3708 2 2544 2547 2548
3709 3 2538 2544 2549
3710 3 2550 2544 2549
3711 2 2546 2545 2556
3712 2 2548 2547 2556
3713 3 2544 2550 2556
3714 1 2550 2551 2556
3715 1 2550 2553 2556
3716 2 2550 2551 2552
3717 2 2550 2553 2554
3718 3 2544 2550 2555
3719 3 2556 2550 2555
3720 2 2552 2551 2562
3721 2 2554 2553 2562
3722 3 2550 2556 2562
3723 1 2556 2557 2562
3724 1 2556 2559 2562
3725 2 2556 2557 2558
3726 2 2556 2559 2560
3727 3 2550 2556 2561
3728 3 2562 2556 2561
3729 2 2558 2557 2568
3730 2 2560 2559 2568
3731 3 2556 2562 2568
3732 1 2562 2563 2568
3733 1 2562 2565 2568
3734 2 2562 2563 2564
3735 2 2562 2565 2566
3736 3 2556 2562 2567
3737 3 2568 2562 2567
3738 2 2564 2563 2574
3739 2 2566 2565 2574
3740 3 2562 2568 2574
3741 1 2568 2569 2574
3742 1 2568 2571 2574
3743 2 2568 2569 2570
3744 2 2568 2571 2572
3745 3 2562 2568 2573
3746 3 2574 2568 2573
3747 2 2570 2569 2580
3748 2 2572 2571 2580
3749 3 2568 2574 2580
3750 1 2574 2575 2580
3751 1 2574 2577 2580
3752 2 2574 2575 2576
3753 2 2574 2577 2578
3754 3 2568 2574 2579
3755 3 2580 2574 2579
3756 2 2576 2575 2586
3757 2 2578 2577 2586
3758 3 2574 2580 2586
3759 1 2580 2581 2586
3760 1 2580 2583 2586
3761 2 2580 2581 2582
3762 2 2580 2583 2584
3763 3 2574 2580 2585
3764 3 2586 2580 2585
3765 2 2582 2581 2592
3766 2 2584 2583 2592
3767 3 2580 2586 2592
3768 1 2586 2587 2592
3769 1 2586 2589 2592
3770 2 2586 2587 2588
3771 2 2586 2589 2590
3772 3 2580 2586 2591
3773 3 2592 2586 2591
3774 2 2588 2587 2598
3775 2 2590 2589 2598
3776 3 2586 2592 2598
3777 1 2592 2593 2598
3778 1 2592 2595 2598
3779 2 2592 2593 2594
3780 2 2592 2595 2596
3781 3 2586 2592 2597
3782 3 2598 2592 2597
3783 2 2594 2593 2604
3784 2 2596 2595 2604
3785 3 2592 2598 2604
3786 1 2598 2599 2604
3787 1 2598 2601 2604
3788 2 2598 2599 2600
3789 2 2598 2601 2602
3790 3 2592 2598 2603
3791 3 2604 2598 2603
3792 2 2600 2599 2610
3793 2 2602 2601 2610
3794 3 2598 2604 2610
3795 1 2604 2605 2610
3796 1 2604 2607 2610
3797 2 2604 2605 2606
3798 2 2604 2607 2608
3799 3 2598 2604 2609
3800 3 2610 2604 2609
3801 2 2606 2605 2616
3802 2 2608 2607 2616
3803 3 2604 2610 2616
3804 1 2610 2611 2616
3805 1 2610 2613 2616
3806 2 2610 2611 2612
3807 2 2610 2613 2614
3808 3 2604 2610 2615
3809 3 2616 2610 2615
3810 2 2612 2611 2622
3811 2 2614 2613 2622
3812 3 2610 2616 2622
3813 1 2616 2617 2622
3814 1 2616 2619 2622
3815 2 2616 2617 2618
3816 2 2616 2619 2620
3817 3 2610 2616 2621
3818 3 2622 2616 2621
3819 1 2623 2624 2628
3820 1 2623 2626 2628
3821 2 2623 2624 2625
3822 2 2623 2626 2627
3823 2 2625 2624 2634
3824 2 2627 2626 2634
3825 3 2623 2628 2634
3826 1 2628 2629 2634
3827 1 2628 2631 2634
3828 2 2628 2629 2630
3829 2 2628 2631 2632
3830 3 2623 2628 2633
3831 3 2634 2628 2633
3832 2 2630 2629 2640
3833 2 2632 2631 2640
3834 3 2628 2634 2640
3835 1 2634 2635 2640
3836 1 2634 2637 2640
3837 2 2634 2635 2636
3838 2 2634 2637 2638
3839 3 2628 2634 2639
3840 3 2640 2634 2639
3841 2 2636 2635 2646
3842 2 2638 2637 2646
3843 3 2634 2640 2646
3844 1 2640 2641 2646
3845 1 2640 2643 2646
3846 2 2640 2641 2642
3847 2 2640 2643 2644
3848 3 2634 2640 2645
3849 3 2646 2640 2645
3850 2 2642 2641 2652
3851 2 2644 2643 2652
3852 3 2640 2646 2652
3853 1 2646 2647 2652
3854 1 2646 2649 2652
3855 2 2646 2647 2648
3856 2 2646 2649 2650
3857 3 2640 2646 2651
3858 3 2652 2646 2651
3859 2 2648 2647 2658
3860 2 2650 2649 2658
3861 3 2646 2652 2658
3862 1 2652 2653 2658
3863 1 2652 2655 2658
3864 2 2652 2653 2654
3865 2 2652 2655 2656
3866 3 2646 2652 2657
3867 3 2658 2652 2657
3868 2 2654 2653 2664
3869 2 2656 2655 2664
3870 3 2652 2658 2664
3871 1 2658 2659 2664
3872 1 2658 2661 2664
3873 2 2658 2659 2660
3874 2 2658 2661 2662
3875 3 2652 2658 2663
3876 3 2664 2658 2663
3877 2 2660 2659 2670
3878 2 2662 2661 2670
3879 3 2658 2664 2670
3880 1 2664 2665 2670
3881 1 2664 2667 2670
3882 2 2664 2665 2666
3883 2 2664 2667 2668
3884 3 2658 2664 2669
3885 3 2670 2664 2669
3886 2 2666 2665 2676
3887 2 2668 2667 2676
3888 3 2664 2670 2676
3889 1 2670 2671 2676
3890 1 2670 2673 2676
3891 2 2670 2671 2672
3892 2 2670 2673 2674
3893 3 2664 2670 2675
3894 3 2676 2670 2675
3895 2 2672 2671 2682
3896 2 2674 2673 2682
3897 3 2670 2676 2682
3898 1 2676 2677 2682
3899 1 2676 2679 2682
3900 2 2676 2677 2678
3901 2 2676 2679 2680
3902 3 2670 2676 2681
3903 3 2682 2676 2681
3904 2 2678 2677 2688
3905 2 2680 2679 2688
3906 3 2676 2682 2688
3907 1 2682 2683 2688
3908 1 2682 2685 2688
3909 2 2682 2683 2684
3910 2 2682 2685 2686
3911 3 2676 2682 2687
3912 3 2688 2682 2687
3913 2 2684 2683 2694
3914 2 2686 2685 2694
3915 3 2682 2688 2694
3916 1 2688 2689 2694
3917 1 2688 2691 2694
3918 2 2688 2689 2690
3919 2 2688 2691 2692
3920 3 2682 2688 2693
3921 3 2694 2688 2693
3922 2 2690 2689 2700
3923 2 2692 2691 2700
3924 3 2688 2694 2700
3925 1 2694 2695 2700
3926 1 2694 2697 2700
3927 2 2694 2695 2696
3928 2 2694 2697 2698
3929 3 2688 2694 2699
3930 3 2700 2694 2699
3931 2 2696 2695 2706
3932 2 2698 2697 2706
3933 3 2694 2700 2706
3934 1 2700 2701 2706
3935 1 2700 2703 2706
3936 2 2700 2701 2702
3937 2 2700 2703 2704
3938 3 2694 2700 2705
3939 3 2706 2700 2705
3940 2 2702 2701 2712
3941 2 2704 2703 2712
3942 3 2700 2706 2712
3943 1 2706 2707 2712
3944 1 2706 2709 2712
3945 2 2706 2707 2708
3946 2 2706 2709 2710
3947 3 2700 2706 2711
3948 3 2712 2706 2711
3949 2 2708 2707 2718
3950 2 2710 2709 2718
3951 3 2706 2712 2718
3952 1 2712 2713 2718
3953 1 2712 2715 2718
3954 2 2712 2713 2714
3955 2 2712 2715 2716
3956 3 2706 2712 2717
3957 3 2718 2712 2717
3958 2 2714 2713 2724
3959 2 2716 2715 2724
3960 3 2712 2718 2724
3961 1 2718 2719 2724
3962 1 2718 2721 2724
3963 2 2718 2719 2720
3964 2 2718 2721 2722
3965 3 2712 2718 2723
3966 3 2724 2718 2723
3967 2 2720 2719 2730
3968 2 2722 2721 2730
3969 3 2718 2724 2730
3970 1 2724 2725 2730
3971 1 2724 2727 2730
3972 2 2724 2725 2726
3973 2 2724 2727 2728
3974 3 2718 2724 2729
3975 3 2730 2724 2729
3976 2 2726 2725 2736
3977 2 2728 2727 2736
3978 3 2724 2730 2736
3979 1 2730 2731 2736
3980 1 2730 2733 2736
3981 2 2730 2731 2732
3982 2 2730 2733 2734
3983 3 2724 2730 2735
3984 3 2736 2730 2735
3985 1 2737 2738 2742
3986 1 2737 2740 2742
3987 2 2737 2738 2739
3988 2 2737 2740 2741
3989 2 2739 2738 2748
3990 2 2741 2740 2748
3991 3 2737 2742 2748
3992 1 2742 2743 2748
3993 1 2742 2745 2748
3994 2 2742 2743 2744
3995 2 2742 2745 2746
3996 3 2737 2742 2747
3997 3 2748 2742 2747
3998 2 2744 2743 2754
3999 2 2746 2745 2754
4000 3 2742 2748 2754
4001 1 2748 2749 2754
4002 1 2748 2751 2754
4003 2 2748 2749 2750
4004 2 2748 2751 2752
4005 3 2742 2748 2753
4006 3 2754 2748 2753
4007 2 2750 2749 2760
4008 2 2752 2751 2760
4009 3 2748 2754 2760
4010 1 2754 2755 2760
4011 1 2754 2757 2760
4012 2 2754 2755 2756
4013 2 2754 2757 2758
4014 3 2748 2754 2759
4015 3 2760 2754 2759
4016 2 2756 2755 2766
4017 2 2758 2757 2766
4018 3 2754 2760 2766
4019 1 2760 2761 2766
4020 1 2760 2763 2766
4021 2 2760 2761 2762
4022 2 2760 2763 2764
4023 3 2754 2760 2765
4024 3 2766 2760 2765
4025 2 2762 2761 2772
4026 2 2764 2763 2772
4027 3 2760 2766 2772
4028 1 2766 2767 2772
4029 1 2766 2769 2772
4030 2 2766 2767 2768
4031 2 2766 2769 2770
4032 3 2760 2766 2771
4033 3 2772 2766 2771
4034 2 2768 2767 2778
4035 2 2770 2769 2778
4036 3 2766 2772 2778
4037 1 2772 2773 2778
4038 1 2772 2775 2778
4039 2 2772 2773 2774
4040 2 2772 2775 2776
4041 3 2766 2772 2777
4042 3 2778 2772 2777
4043 2 2774 2773 2784
4044 2 2776 2775 2784
4045 3 2772 2778 2784
4046 1 2778 2779 2784
4047 1 2778 2781 2784
4048 2 2778 2779 2780
4049 2 2778 2781 2782
4050 3 2772 2778 2783
4051 3 2784 2778 2783
4052 2 2780 2779 2790
4053 2 2782 2781 2790
4054 3 2778 2784 2790
4055 1 2784 2785 2790
4056 1 2784 2787 2790
4057 2 2784 2785 2786
4058 2 2784 2787 2788
4059 3 2778 2784 2789
4060 3 2790 2784 2789
4061 2 2786 2785 2796
4062 2 2788 2787 2796
4063 3 2784 2790 2796
4064 1 2790 2791 2796
4065 1 2790 2793 2796
4066 2 2790 2791 2792
4067 2 2790 2793 2794
4068 3 2784 2790 2795
4069 3 2796 2790 2795
4070 2 2792 2791 2802
4071 2 2794 2793 2802
4072 3 2790 2796 2802
4073 1 2796 2797 2802
4074 1 2796 2799 2802
4075 2 2796 2797 2798
4076 2 2796 2799 2800
4077 3 2790 2796 2801
4078 3 2802 2796 2801
4079 2 2798 2797 2808
4080 2 2800 2799 2808
4081 3 2796 2802 2808
4082 1 2802 2803 2808
4083 1 2802 2805 2808
4084 2 2802 2803 2804
4085 2 2802 2805 2806
4086 3 2796 2802 2807
4087 3 2808 2802 2807
4088 2 2804 2803 2814
4089 2 2806 2805 2814
4090 3 2802 2808 2814
4091 1 2808 2809 2814
4092 1 2808 2811 2814
4093 2 2808 2809 2810
4094 2 2808 2811 2812
4095 3 2802 2808 2813
4096 3 2814 2808 2813
4097 2 2810 2809 2820
4098 2 2812 2811 2820
4099 3 2808 2814 2820
4100 1 2814 2815 2820
4101 1 2814 2817 2820
4102 2 2814 2815 2816
4103 2 2814 2817 2818
4104 3 2808 2814 2819
4105 3 2820 2814 2819
4106 2 2816 2815 2826
4107 2 2818 2817 2826
4108 3 2814 2820 2826
4109 1 2820 2821 2826
4110 1 2820 2823 2826
4111 2 2820 2821 2822
4112 2 2820 2823 2824
4113 3 2814 2820 2825
4114 3 2826 2820 2825
4115 2 2822 2821 2832
4116 2 2824 2823 2832
4117 3 2820 2826 2832
4118 1 2826 2827 2832
4119 1 2826 2829 2832
4120 2 2826 2827 2828
4121 2 2826 2829 2830
4122 3 2820 2826 2831
4123 3 2832 2826 2831
4124 2 2828 2827 2838
4125 2 2830 2829 2838
4126 3 2826 2832 2838
4127 1 2832 2833 2838
4128 1 2832 2835 2838
4129 2 2832 2833 2834
4130 2 2832 2835 2836
4131 3 2826 2832 2837
4132 3 2838 2832 2837
4133 2 2834 2833 2844
4134 2 2836 2835 2844
4135 3 2832 2838 2844
4136 1 2838 2839 2844
4137 1 2838 2841 2844
4138 2 2838 2839 2840
4139 2 2838 2841 2842
4140 3 2832 2838 2843
4141 3 2844 2838 2843
4142 2 2840 2839 2850
4143 2 2842 2841 2850
4144 3 2838 2844 2850
4145 1 2844 2845 2850
4146 1 2844 2847 2850
4147 2 2844 2845 2846
4148 2 2844 2847 2848
4149 3 2838 2844 2849
4150 3 2850 2844 2849
4151 1 2851 2852 2856
4152 1 2851 2854 2856
4153 2 2851 2852 2853
4154 2 2851 2854 2855
4155 2 2853 2852 2862
4156 2 2855 2854 2862
4157 3 2851 2856 2862
4158 1 2856 2857 2862
4159 1 2856 2859 2862
4160 2 2856 2857 2858
4161 2 2856 2859 2860
4162 3 2851 2856 2861
4163 3 2862 2856 2861
4164 2 2858 2857 2868
4165 2 2860 2859 2868
4166 3 2856 2862 2868
4167 1 2862 2863 2868
4168 1 2862 2865 2868
4169 2 2862 2863 2864
4170 2 2862 2865 2866
4171 3 2856 2862 2867
4172 3 2868 2862 2867
4173 2 2864 2863 2874
4174 2 2866 2865 2874
4175 3 2862 2868 2874
4176 1 2868 2869 2874
4177 1 2868 2871 2874
4178 2 2868 2869 2870
4179 2 2868 2871 2872
4180 3 2862 2868 2873
4181 3 2874 2868 2873
4182 2 2870 2869 2880
4183 2 2872 2871 2880
4184 3 2868 2874 2880
4185 1 2874 2875 2880
4186 1 2874 2877 2880
4187 2 2874 2875 2876
4188 2 2874 2877 2878
4189 3 2868 2874 2879
4190 3 2880 2874 2879
4191 2 2876 2875 2886
4192 2 2878 2877 2886
4193 3 2874 2880 2886
4194 1 2880 2881 2886
4195 1 2880 2883 2886
4196 2 2880 2881 2882
4197 2 2880 2883 2884
4198 3 2874 2880 2885
4199 3 2886 2880 2885
4200 2 2882 2881 2892
4201 2 2884 2883 2892
4202 3 2880 2886 2892
4203 1 2886 2887 2892
4204 1 2886 2889 2892
4205 2 2886 2887 2888
4206 2 2886 2889 2890
4207 3 2880 2886 2891
4208 3 2892 2886 2891
4209 2 2888 2887 2898
4210 2 2890 2889 2898
4211 3 2886 2892 2898
4212 1 2892 2893 2898
4213 1 2892 2895 2898
4214 2 2892 2893 2894
4215 2 2892 2895 2896
4216 3 2886 2892 2897
4217 3 2898 2892 2897
4218 2 2894 2893 2904
4219 2 2896 2895 2904
4220 3 2892 2898 2904
4221 1 2898 2899 2904
4222 1 2898 2901 2904
4223 2 2898 2899 2900
4224 2 2898 2901 2902
4225 3 2892 2898 2903
4226 3 2904 2898 2903
4227 2 2900 2899 2910
4228 2 2902 2901 2910
4229 3 2898 2904 2910
4230 1 2904 2905 2910
4231 1 2904 2907 2910
4232 2 2904 2905 2906
4233 2 2904 2907 2908
4234 3 2898 2904 2909
4235 3 2910 2904 2909
4236 2 2906 2905 2916
4237 2 2908 2907 2916
4238 3 2904 2910 2916
4239 1 2910 2911 2916
4240 1 2910 2913 2916
4241 2 2910 2911 2912
4242 2 2910 2913 2914
4243 3 2904 2910 2915
4244 3 2916 2910 2915
4245 2 2912 2911 2922
4246 2 2914 2913 2922
4247 3 2910 2916 2922
4248 1 2916 2917 2922
4249 1 2916 2919 2922
4250 2 2916 2917 2918
4251 2 2916 2919 2920
4252 3 2910 2916 2921
4253 3 2922 2916 2921
4254 2 2918 2917 2928
4255 2 2920 2919 2928
4256 3 2916 2922 2928
4257 1 2922 2923 2928
4258 1 2922 2925 2928
4259 2 2922 2923 2924
4260 2 2922 2925 2926
4261 3 2916 2922 2927
4262 3 2928 2922 2927
4263 2 2924 2923 2934
4264 2 2926 2925 2934
4265 3 2922 2928 2934
4266 1 2928 2929 2934
4267 1 2928 2931 2934
4268 2 2928 2929 2930
4269 2 2928 2931 2932
4270 3 2922 2928 2933
4271 3 2934 2928 2933
4272 2 2930 2929 2940
4273 2 2932 2931 2940
4274 3 2928 2934 2940
4275 1 2934 2935 2940
4276 1 2934 2937 2940
4277 2 2934 2935 2936
4278 2 2934 2937 2938
4279 3 2928 2934 2939
4280 3 2940 2934 2939
4281 2 2936 2935 2946
4282 2 2938 2937 2946
4283 3 2934 2940 2946
4284 1 2940 2941 2946
4285 1 2940 2943 2946
4286 2 2940 2941 2942
4287 2 2940 2943 2944
4288 3 2934 2940 2945
4289 3 2946 2940 2945
4290 2 2942 2941 2952
4291 2 2944 2943 2952
4292 3 2940 2946 2952
4293 1 2946 2947 2952
4294 1 2946 2949 2952
4295 2 2946 2947 2948
4296 2 2946 2949 2950
4297 3 2940 2946 2951
4298 3 2952 2946 2951
4299 2 2948 2947 2958
4300 2 2950 2949 2958
4301 3 2946 2952 2958
4302 1 2952 2953 2958
4303 1 2952 2955 2958
4304 2 2952 2953 2954
4305 2 2952 2955 2956
4306 3 2946 2952 2957
4307 3 2958 2952 2957
4308 2 2954 2953 2964
4309 2 2956 2955 2964
4310 3 2952 2958 2964
4311 1 2958 2959 2964
4312 1 2958 2961 2964
4313 2 2958 2959 2960
4314 2 2958 2961 2962
4315 3 2952 2958 2963
4316 3 2964 2958 2963
4317 1 2965 2966 2970
4318 1 2965 2968 2970
4319 2 2965 2966 2967
4320 2 2965 2968 2969
4321 2 2967 2966 2976
4322 2 2969 2968 2976
4323 3 2965 2970 2976
4324 1 2970 2971 2976
4325 1 2970 2973 2976
4326 2 2970 2971 2972
4327 2 2970 2973 2974
4328 3 2965 2970 2975
4329 3 2976 2970 2975
4330 2 2972 2971 2982
4331 2 2974 2973 2982
4332 3 2970 2976 2982
4333 1 2976 2977 2982
4334 1 2976 2979 2982
4335 2 2976 2977 2978
4336 2 2976 2979 2980
4337 3 2970 2976 2981
4338 3 2982 2976 2981
4339 2 2978 2977 2988
4340 2 2980 2979 2988
4341 3 2976 2982 2988
4342 1 2982 2983 2988
4343 1 2982 2985 2988
4344 2 2982 2983 2984
4345 2 2982 2985 2986
4346 3 2976 2982 2987
4347 3 2988 2982 2987
4348 2 2984 2983 2994
4349 2 2986 2985 2994
4350 3 2982 2988 2994
4351 1 2988 2989 2994
4352 1 2988 2991 2994
4353 2 2988 2989 2990
4354 2 2988 2991 2992
4355 3 2982 2988 2993
4356 3 2994 2988 2993
4357 2 2990 2989 3000
4358 2 2992 2991 3000
4359 3 2988 2994 3000
4360 1 2994 2995 3000
4361 1 2994 2997 3000
4362 2 2994 2995 2996
4363 2 2994 2997 2998
4364 3 2988 2994 2999
4365 3 3000 2994 2999
4366 2 2996 2995 3006
4367 2 2998 2997 3006
4368 3 2994 3000 3006
4369 1 3000 3001 3006
4370 1 3000 3003 3006
4371 2 3000 3001 3002
4372 2 3000 3003 3004
4373 3 2994 3000 3005
4374 3 3006 3000 3005
4375 2 3002 3001 3012
4376 2 3004 3003 3012
4377 3 3000 3006 3012
4378 1 3006 3007 3012
4379 1 3006 3009 3012
4380 2 3006 3007 3008
4381 2 3006 3009 3010
4382 3 3000 3006 3011
4383 3 3012 3006 3011
4384 2 3008 3007 3018
4385 2 3010 3009 3018
4386 3 3006 3012 3018
4387 1 3012 3013 3018
4388 1 3012 3015 3018
4389 2 3012 3013 3014
4390 2 3012 3015 3016
4391 3 3006 3012 3017
4392 3 3018 3012 3017
4393 2 3014 3013 3024
4394 2 3016 3015 3024
4395 3 3012 3018 3024
4396 1 3018 3019 3024
4397 1 3018 3021 3024
4398 2 3018 3019 3020
4399 2 3018 3021 3022
4400 3 3012 3018 3023
4401 3 3024 3018 3023
4402 2 3020 3019 3030
4403 2 3022 3021 3030
4404 3 3018 3024 3030
4405 1 3024 3025 3030
4406 1 3024 3027 3030
4407 2 3024 3025 3026
4408 2 3024 3027 3028
4409 3 3018 3024 3029
4410 3 3030 3024 3029
4411 2 3026 3025 3036
4412 2 3028 3027 3036
4413 3 3024 3030 3036
4414 1 3030 3031 3036
4415 1 3030 3033 3036
4416 2 3030 3031 3032
4417 2 3030 3033 3034
4418 3 3024 3030 3035
4419 3 3036 3030 3035
4420 2 3032 3031 3042
4421 2 3034 3033 3042
4422 3 3030 3036 3042
4423 1 3036 3037 3042
4424 1 3036 3039 3042
4425 2 3036 3037 3038
4426 2 3036 3039 3040
4427 3 3030 3036 3041
4428 3 3042 3036 3041
4429 2 3038 3037 3048
4430 2 3040 3039 3048
4431 3 3036 3042 3048
4432 1 3042 3043 3048
4433 1 3042 3045 3048
4434 2 3042 3043 3044
4435 2 3042 3045 3046
4436 3 3036 3042 3047
4437 3 3048 3042 3047
4438 2 3044 3043 3054
4439 2 3046 3045 3054
4440 3 3042 3048 3054
4441 1 3048 3049 3054
4442 1 3048 3051 3054
4443 2 3048 3049 3050
4444 2 3048 3051 3052
4445 3 3042 3048 3053
4446 3 3054 3048 3053
4447 2 3050 3049 3060
4448 2 3052 3051 3060
4449 3 3048 3054 3060
4450 1 3054 3055 3060
4451 1 3054 3057 3060
4452 2 3054 3055 3056
4453 2 3054 3057 3058
4454 3 3048 3054 3059
4455 3 3060 3054 3059
4456 2 3056 3055 3066
4457 2 3058 3057 3066
4458 3 3054 3060 3066
4459 1 3060 3061 3066
4460 1 3060 3063 3066
4461 2 3060 3061 3062
4462 2 3060 3063 3064
4463 3 3054 3060 3065
4464 3 3066 3060 3065
4465 2 3062 3061 3072
4466 2 3064 3063 3072
4467 3 3060 3066 3072
4468 1 3066 3067 3072
4469 1 3066 3069 3072
4470 2 3066 3067 3068
4471 2 3066 3069 3070
4472 3 3060 3066 3071
4473 3 3072 3066 3071
4474 2 3068 3067 3078
4475 2 3070 3069 3078
4476 3 3066 3072 3078
4477 1 3072 3073 3078
4478 1 3072 3075 3078
4479 2 3072 3073 3074
4480 2 3072 3075 3076
4481 3 3066 3072 3077
4482 3 3078 3072 3077
4483 1 3079 3080 3084
4484 1 3079 3082 3084
4485 2 3079 3080 3081
4486 2 3079 3082 3083
4487 2 3081 3080 3090
4488 2 3083 3082 3090
4489 3 3079 3084 3090
4490 1 3084 3085 3090
4491 1 3084 3087 3090
4492 2 3084 3085 3086
4493 2 3084 3087 3088
4494 3 3079 3084 3089
4495 3 3090 3084 3089
4496 2 3086 3085 3096
4497 2 3088 3087 3096
4498 3 3084 3090 3096
4499 1 3090 3091 3096
4500 1 3090 3093 3096
4501 2 3090 3091 3092
4502 2 3090 3093 3094
4503 3 3084 3090 3095
4504 3 3096 3090 3095
4505 2 3092 3091 3102
4506 2 3094 3093 3102
4507 3 3090 3096 3102
4508 1 3096 3097 3102
4509 1 3096 3099 3102
4510 2 3096 3097 3098
4511 2 3096 3099 3100
4512 3 3090 3096 3101
4513 3 3102 3096 3101
4514 2 3098 3097 3108
4515 2 3100 3099 3108
4516 3 3096 3102 3108
4517 1 3102 3103 3108
4518 1 3102 3105 3108
4519 2 3102 3103 3104
4520 2 3102 3105 3106
4521 3 3096 3102 3107
4522 3 3108 3102 3107
4523 2 3104 3103 3114
4524 2 3106 3105 3114
4525 3 3102 3108 3114
4526 1 3108 3109 3114
4527 1 3108 3111 3114
4528 2 3108 3109 3110
4529 2 3108 3111 3112
4530 3 3102 3108 3113
4531 3 3114 3108 3113
4532 2 3110 3109 3120
4533 2 3112 3111 3120
4534 3 3108 3114 3120
4535 1 3114 3115 3120
4536 1 3114 3117 3120
4537 2 3114 3115 3116
4538 2 3114 3117 3118
4539 3 3108 3114 3119
4540 3 3120 3114 3119
4541 2 3116 3115 3126
4542 2 3118 3117 3126
4543 3 3114 3120 3126
4544 1 3120 3121 3126
4545 1 3120 3123 3126
4546 2 3120 3121 3122
4547 2 3120 3123 3124
4548 3 3114 3120 3125
4549 3 3126 3120 3125
4550 2 3122 3121 3132
4551 2 3124 3123 3132
4552 3 3120 3126 3132
4553 1 3126 3127 3132
4554 1 3126 3129 3132
4555 2 3126 3127 3128
4556 2 3126 3129 3130
4557 3 3120 3126 3131
4558 3 3132 3126 3131
4559 2 3128 3127 3138
4560 2 3130 3129 3138
4561 3 3126 3132 3138
4562 1 3132 3133 3138
4563 1 3132 3135 3138
4564 2 3132 3133 3134
4565 2 3132 3135 3136
4566 3 3126 3132 3137
4567 3 3138 3132 3137
4568 2 3134 3133 3144
4569 2 3136 3135 3144
4570 3 3132 3138 3144
4571 1 3138 3139 3144
4572 1 3138 3141 3144
4573 2 3138 3139 3140
4574 2 3138 3141 3142
4575 3 3132 3138 3143
4576 3 3144 3138 3143
4577 2 3140 3139 3150
4578 2 3142 3141 3150
4579 3 3138 3144 3150
4580 1 3144 3145 3150
4581 1 3144 3147 3150
4582 2 3144 3145 3146
4583 2 3144 3147 3148
4584 3 3138 3144 3149
4585 3 3150 3144 3149
4586 2 3146 3145 3156
4587 2 3148 3147 3156
4588 3 3144 3150 3156
4589 1 3150 3151 3156
4590 1 3150 3153 3156
4591 2 3150 3151 3152
4592 2 3150 3153 3154
4593 3 3144 3150 3155
4594 3 3156 3150 3155
4595 2 3152 3151 3162
4596 2 3154 3153 3162
4597 3 3150 3156 3162
4598 1 3156 3157 3162
4599 1 3156 3159 3162
4600 2 3156 3157 3158
4601 2 3156 3159 3160
4602 3 3150 3156 3161
4603 3 3162 3156 3161
4604 2 3158 3157 3168
4605 2 3160 3159 3168
4606 3 3156 3162 3168
4607 1 3162 3163 3168
4608 1 3162 3165 3168
4609 2 3162 3163 3164
4610 2 3162 3165 3166
4611 3 3156 3162 3167
4612 3 3168 3162 3167
4613 2 3164 3163 3174
4614 2 3166 3165 3174
4615 3 3162 3168 3174
4616 1 3168 3169 3174
4617 1 3168 3171 3174
4618 2 3168 3169 3170
4619 2 3168 3171 3172
4620 3 3162 3168 3173
4621 3 3174 3168 3173
4622 2 3170 3169 3180
4623 2 3172 3171 3180
4624 3 3168 3174 3180
4625 1 3174 3175 3180
4626 1 3174 3177 3180
4627 2 3174 3175 3176
4628 2 3174 3177 3178
4629 3 3168 3174 3179
4630 3 3180 3174 3179
4631 2 3176 3175 3186
4632 2 3178 3177 3186
4633 3 3174 3180 3186
4634 1 3180 3181 3186
4635 1 3180 3183 3186
4636 2 3180 3181 3182
4637 2 3180 3183 3184
4638 3 3174 3180 3185
4639 3 3186 3180 3185
4640 2 3182 3181 3192
4641 2 3184 3183 3192
4642 3 3180 3186 3192
4643 1 3186 3187 3192
4644 1 3186 3189 3192
4645 2 3186 3187 3188
4646 2 3186 3189 3190
4647 3 3180 3186 3191
4648 3 3192 3186 3191
4649 1 3193 3194 3198
4650 1 3193 3196 3198
4651 2 3193 3194 3195
4652 2 3193 3196 3197
4653 2 3195 3194 3204
4654 2 3197 3196 3204
4655 3 3193 3198 3204
4656 1 3198 3199 3204
4657 1 3198 3201 3204
4658 2 3198 3199 3200
4659 2 3198 3201 3202
4660 3 3193 3198 3203
4661 3 3204 3198 3203
4662 2 3200 3199 3210
4663 2 3202 3201 3210
4664 3 3198 3204 3210
4665 1 3204 3205 3210
4666 1 3204 3207 3210
4667 2 3204 3205 3206
4668 2 3204 3207 3208
4669 3 3198 3204 3209
4670 3 3210 3204 3209
4671 2 3206 3205 3216
4672 2 3208 3207 3216
4673 3 3204 3210 3216
4674 1 3210 3211 3216
4675 1 3210 3213 3216
4676 2 3210 3211 3212
4677 2 3210 3213 3214
4678 3 3204 3210 3215
4679 3 3216 3210 3215
4680 2 3212 3211 3222
4681 2 3214 3213 3222
4682 3 3210 3216 3222
4683 1 3216 3217 3222
4684 1 3216 3219 3222
4685 2 3216 3217 3218
4686 2 3216 3219 3220
4687 3 3210 3216 3221
4688 3 3222 3216 3221
4689 2 3218 3217 3228
4690 2 3220 3219 3228
4691 3 3216 3222 3228
4692 1 3222 3223 3228
4693 1 3222 3225 3228
4694 2 3222 3223 3224
4695 2 3222 3225 3226
4696 3 3216 3222 3227
4697 3 3228 3222 3227
4698 2 3224 3223 3234
4699 2 3226 3225 3234
4700 3 3222 3228 3234
4701 1 3228 3229 3234
4702 1 3228 3231 3234
4703 2 3228 3229 3230
4704 2 3228 3231 3232
4705 3 3222 3228 3233
4706 3 3234 3228 3233
4707 2 3230 3229 3240
4708 2 3232 3231 3240
4709 3 3228 3234 3240
4710 1 3234 3235 3240
4711 1 3234 3237 3240
4712 2 3234 3235 3236
4713 2 3234 3237 3238
4714 3 3228 3234 3239
4715 3 3240 3234 3239
4716 2 3236 3235 3246
4717 2 3238 3237 3246
4718 3 3234 3240 3246
4719 1 3240 3241 3246
4720 1 3240 3243 3246
4721 2 3240 3241 3242
4722 2 3240 3243 3244
4723 3 3234 3240 3245
4724 3 3246 3240 3245
4725 2 3242 3241 3252
4726 2 3244 3243 3252
4727 3 3240 3246 3252
4728 1 3246 3247 3252
4729 1 3246 3249 3252
4730 2 3246 3247 3248
4731 2 3246 3249 3250
4732 3 3240 3246 3251
4733 3 3252 3246 3251
4734 2 3248 3247 3258
4735 2 3250 3249 3258
4736 3 3246 3252 3258
4737 1 3252 3253 3258
4738 1 3252 3255 3258
4739 2 3252 3253 3254
4740 2 3252 3255 3256
4741 3 3246 3252 3257
4742 3 3258 3252 3257
4743 2 3254 3253 3264
4744 2 3256 3255 3264
4745 3 3252 3258 3264
4746 1 3258 3259 3264
4747 1 3258 3261 3264
4748 2 3258 3259 3260
4749 2 3258 3261 3262
4750 3 3252 3258 3263
4751 3 3264 3258 3263
4752 2 3260 3259 3270
4753 2 3262 3261 3270
4754 3 3258 3264 3270
4755 1 3264 3265 3270
4756 1 3264 3267 3270
4757 2 3264 3265 3266
4758 2 3264 3267 3268
4759 3 3258 3264 3269
4760 3 3270 3264 3269
4761 2 3266 3265 3276
4762 2 3268 3267 3276
4763 3 3264 3270 3276
4764 1 3270 3271 3276
4765 1 3270 3273 3276
4766 2 3270 3271 3272
4767 2 3270 3273 3274
4768 3 3264 3270 3275
4769 3 3276 3270 3275
4770 2 3272 3271 3282
4771 2 3274 3273 3282
4772 3 3270 3276 3282
4773 1 3276 3277 3282
4774 1 3276 3279 3282
4775 2 3276 3277 3278
4776 2 3276 3279 3280
4777 3 3270 3276 3281
4778 3 3282 3276 3281
4779 2 3278 3277 3288
4780 2 3280 3279 3288
4781 3 3276 3282 3288
4782 1 3282 3283 3288
4783 1 3282 3285 3288
4784 2 3282 3283 3284
4785 2 3282 3285 3286
4786 3 3276 3282 3287
4787 3 3288 3282 3287
4788 2 3284 3283 3294
4789 2 3286 3285 3294
4790 3 3282 3288 3294
4791 1 3288 3289 3294
4792 1 3288 3291 3294
4793 2 3288 3289 3290
4794 2 3288 3291 3292
4795 3 3282 3288 3293
4796 3 3294 3288 3293
4797 2 3290 3289 3300
4798 2 3292 3291 3300
4799 3 3288 3294 3300
4800 1 3294 3295 3300
4801 1 3294 3297 3300
4802 2 3294 3295 3296
4803 2 3294 3297 3298
4804 3 3288 3294 3299
4805 3 3300 3294 3299
4806 2 3296 3295 3306
4807 2 3298 3297 3306
4808 3 3294 3300 3306
4809 1 3300 3301 3306
4810 1 3300 3303 3306
4811 2 3300 3301 3302
4812 2 3300 3303 3304
4813 3 3294 3300 3305
4814 3 3306 3300 3305
4815 1 3307 3308 3312
4816 1 3307 3310 3312
4817 2 3307 3308 3309
4818 2 3307 3310 3311
4819 2 3309 3308 3318
4820 2 3311 3310 3318
4821 3 3307 3312 3318
4822 1 3312 3313 3318
4823 1 3312 3315 3318
4824 2 3312 3313 3314
4825 2 3312 3315 3316
4826 3 3307 3312 3317
4827 3 3318 3312 3317
4828 2 3314 3313 3324
4829 2 3316 3315 3324
4830 3 3312 3318 3324
4831 1 3318 3319 3324
4832 1 3318 3321 3324
4833 2 3318 3319 3320
4834 2 3318 3321 3322
4835 3 3312 3318 3323
4836 3 3324 3318 3323
4837 2 3320 3319 3330
4838 2 3322 3321 3330
4839 3 3318 3324 3330
4840 1 3324 3325 3330
4841 1 3324 3327 3330
4842 2 3324 3325 3326
4843 2 3324 3327 3328
4844 3 3318 3324 3329
4845 3 3330 3324 3329
4846 2 3326 3325 3336
4847 2 3328 3327 3336
4848 3 3324 3330 3336
4849 1 3330 3331 3336
4850 1 3330 3333 3336
4851 2 3330 3331 3332
4852 2 3330 3333 3334
4853 3 3324 3330 3335
4854 3 3336 3330 3335
4855 2 3332 3331 3342
4856 2 3334 3333 3342
4857 3 3330 3336 3342
4858 1 3336 3337 3342
4859 1 3336 3339 3342
4860 2 3336 3337 3338
4861 2 3336 3339 3340
4862 3 3330 3336 3341
4863 3 3342 3336 3341
4864 2 3338 3337 3348
4865 2 3340 3339 3348
4866 3 3336 3342 3348
4867 1 3342 3343 3348
4868 1 3342 3345 3348
4869 2 3342 3343 3344
4870 2 3342 3345 3346
4871 3 3336 3342 3347
4872 3 3348 3342 3347
4873 2 3344 3343 3354
4874 2 3346 3345 3354
4875 3 3342 3348 3354
4876 1 3348 3349 3354
4877 1 3348 3351 3354
4878 2 3348 3349 3350
4879 2 3348 3351 3352
4880 3 3342 3348 3353
4881 3 3354 3348 3353
4882 2 3350 3349 3360
4883 2 3352 3351 3360
4884 3 3348 3354 3360
4885 1 3354 3355 3360
4886 1 3354 3357 3360
4887 2 3354 3355 3356
4888 2 3354 3357 3358
4889 3 3348 3354 3359
4890 3 3360 3354 3359
4891 2 3356 3355 3366
4892 2 3358 3357 3366
4893 3 3354 3360 3366
4894 1 3360 3361 3366
4895 1 3360 3363 3366
4896 2 3360 3361 3362
4897 2 3360 3363 3364
4898 3 3354 3360 3365
4899 3 3366 3360 3365
4900 2 3362 3361 3372
4901 2 3364 3363 3372
4902 3 3360 3366 3372
4903 1 3366 3367 3372
4904 1 3366 3369 3372
4905 2 3366 3367 3368
4906 2 3366 3369 3370
4907 3 3360 3366 3371
4908 3 3372 3366 3371
4909 2 3368 3367 3378
4910 2 3370 3369 3378
4911 3 3366 3372 3378
4912 1 3372 3373 3378
4913 1 3372 3375 3378
4914 2 3372 3373 3374
4915 2 3372 3375 3376
4916 3 3366 3372 3377
4917 3 3378 3372 3377
4918 2 3374 3373 3384
4919 2 3376 3375 3384
4920 3 3372 3378 3384
4921 1 3378 3379 3384
4922 1 3378 3381 3384
4923 2 3378 3379 3380
4924 2 3378 3381 3382
4925 3 3372 3378 3383
4926 3 3384 3378 3383
4927 2 3380 3379 3390
4928 2 3382 3381 3390
4929 3 3378 3384 3390
4930 1 3384 3385 3390
4931 1 3384 3387 3390
4932 2 3384 3385 3386
4933 2 3384 3387 3388
4934 3 3378 3384 3389
4935 3 3390 3384 3389
4936 2 3386 3385 3396
4937 2 3388 3387 3396
4938 3 3384 3390 3396
4939 1 3390 3391 3396
4940 1 3390 3393 3396
4941 2 3390 3391 3392
4942 2 3390 3393 3394
4943 3 3384 3390 3395
4944 3 3396 3390 3395
4945 2 3392 3391 3402
4946 2 3394 3393 3402
4947 3 3390 3396 3402
4948 1 3396 3397 3402
4949 1 3396 3399 3402
4950 2 3396 3397 3398
4951 2 3396 3399 3400
4952 3 3390 3396 3401
4953 3 3402 3396 3401
4954 2 3398 3397 3408
4955 2 3400 3399 3408
4956 3 3396 3402 3408
4957 1 3402 3403 3408
4958 1 3402 3405 3408
4959 2 3402 3403 3404
4960 2 3402 3405 3406
4961 3 3396 3402 3407
4962 3 3408 3402 3407
4963 2 3404 3403 3414
4964 2 3406 3405 3414
4965 3 3402 3408 3414
4966 1 3408 3409 3414
4967 1 3408 3411 3414
4968 2 3408 3409 3410
4969 2 3408 3411 3412
4970 3 3402 3408 3413
4971 3 3414 3408 3413
4972 2 3410 3409 3420
4973 2 3412 3411 3420
4974 3 3408 3414 3420
4975 1 3414 3415 3420
4976 1 3414 3417 3420
4977 2 3414 3415 3416
4978 2 3414 3417 3418
4979 3 3408 3414 3419
4980 3 3420 3414 3419
4981 1 3421 3422 3426
4982 1 3421 3424 3426
4983 2 3421 3422 3423
4984 2 3421 3424 3425
4985 2 3423 3422 3432
4986 2 3425 3424 3432
4987 3 3421 3426 3432
4988 1 3426 3427 3432
4989 1 3426 3429 3432
4990 2 3426 3427 3428
4991 2 3426 3429 3430
4992 3 3421 3426 3431
4993 3 3432 3426 3431
4994 2 3428 3427 3438
4995 2 3430 3429 3438
4996 3 3426 3432 3438
4997 1 3432 3433 3438
4998 1 3432 3435 3438
4999 2 3432 3433 3434
5000 2 3432 3435 3436
5001 3 3426 3432 3437
5002 3 3438 3432 3437
5003 2 3434 3433 3444
5004 2 3436 3435 3444
5005 3 3432 3438 3444
5006 1 3438 3439 3444
5007 1 3438 3441 3444
5008 2 3438 3439 3440
5009 2 3438 3441 3442
5010 3 3432 3438 3443
5011 3 3444 3438 3443
5012 2 3440 3439 3450
5013 2 3442 3441 3450
5014 3 3438 3444 3450
5015 1 3444 3445 3450
5016 1 3444 3447 3450
5017 2 3444 3445 3446
5018 2 3444 3447 3448
5019 3 3438 3444 3449
5020 3 3450 3444 3449
5021 2 3446 3445 3456
5022 2 3448 3447 3456
5023 3 3444 3450 3456
5024 1 3450 3451 3456
5025 1 3450 3453 3456
5026 2 3450 3451 3452
5027 2 3450 3453 3454
5028 3 3444 3450 3455
5029 3 3456 3450 3455
5030 2 3452 3451 3462
5031 2 3454 3453 3462
5032 3 3450 3456 3462
5033 1 3456 3457 3462
5034 1 3456 3459 3462
5035 2 3456 3457 3458
5036 2 3456 3459 3460
5037 3 3450 3456 3461
5038 3 3462 3456 3461
5039 2 3458 3457 3468
5040 2 3460 3459 3468
5041 3 3456 3462 3468
5042 1 3462 3463 3468
5043 1 3462 3465 3468
5044 2 3462 3463 3464
5045 2 3462 3465 3466
5046 3 3456 3462 3467
5047 3 3468 3462 3467
5048 2 3464 3463 3474
5049 2 3466 3465 3474
5050 3 3462 3468 3474
5051 1 3468 3469 3474
5052 1 3468 3471 3474
5053 2 3468 3469 3470
5054 2 3468 3471 3472
5055 3 3462 3468 3473
5056 3 3474 3468 3473
5057 2 3470 3469 3480
5058 2 3472 3471 3480
5059 3 3468 3474 3480
5060 1 3474 3475 3480
5061 1 3474 3477 3480
5062 2 3474 3475 3476
5063 2 3474 3477 3478
5064 3 3468 3474 3479
5065 3 3480 3474 3479
5066 2 3476 3475 3486
5067 2 3478 3477 3486
5068 3 3474 3480 3486
5069 1 3480 3481 3486
5070 1 3480 3483 3486
5071 2 3480 3481 3482
5072 2 3480 3483 3484
5073 3 3474 3480 3485
5074 3 3486 3480 3485
5075 2 3482 3481 3492
5076 2 3484 3483 3492
5077 3 3480 3486 3492
5078 1 3486 3487 3492
5079 1 3486 3489 3492
5080 2 3486 3487 3488
5081 2 3486 3489 3490
5082 3 3480 3486 3491
5083 3 3492 3486 3491
5084 2 3488 3487 3498
5085 2 3490 3489 3498
5086 3 3486 3492 3498
5087 1 3492 3493 3498
5088 1 3492 3495 3498
5089 2 3492 3493 3494
5090 2 3492 3495 3496
5091 3 3486 3492 3497
5092 3 3498 3492 3497
5093 2 3494 3493 3504
5094 2 3496 3495 3504
5095 3 3492 3498 3504
5096 1 3498 3499 3504
5097 1 3498 3501 3504
5098 2 3498 3499 3500
5099 2 3498 3501 3502
5100 3 3492 3498 3503
5101 3 3504 3498 3503
5102 2 3500 3499 3510
5103 2 3502 3501 3510
5104 3 3498 3504 3510
5105 1 3504 3505 3510
5106 1 3504 3507 3510
5107 2 3504 3505 3506
5108 2 3504 3507 3508
5109 3 3498 3504 3509
5110 3 3510 3504 3509
5111 2 3506 3505 3516
5112 2 3508 3507 3516
5113 3 3504 3510 3516
5114 1 3510 3511 3516
5115 1 3510 3513 3516
5116 2 3510 3511 3512
5117 2 3510 3513 3514
5118 3 3504 3510 3515
5119 3 3516 3510 3515
5120 2 3512 3511 3522
5121 2 3514 3513 3522
5122 3 3510 3516 3522
5123 1 3516 3517 3522
5124 1 3516 3519 3522
5125 2 3516 3517 3518
5126 2 3516 3519 3520
5127 3 3510 3516 3521
5128 3 3522 3516 3521
5129 2 3518 3517 3528
5130 2 3520 3519 3528
5131 3 3516 3522 3528
5132 1 3522 3523 3528
5133 1 3522 3525 3528
5134 2 3522 3523 3524
5135 2 3522 3525 3526
5136 3 3516 3522 3527
5137 3 3528 3522 3527
5138 2 3524 3523 3534
5139 2 3526 3525 3534
5140 3 3522 3528 3534
5141 1 3528 3529 3534
5142 1 3528 3531 3534
5143 2 3528 3529 3530
5144 2 3528 3531 3532
5145 3 3522 3528 3533
5146 3 3534 3528 3533
5147 1 3535 3536 3540
5148 1 3535 3538 3540
5149 2 3535 3536 3537
5150 2 3535 3538 3539
5151 2 3537 3536 3546
5152 2 3539 3538 3546
5153 3 3535 3540 3546
5154 1 3540 3541 3546
5155 1 3540 3543 3546
5156 2 3540 3541 3542
5157 2 3540 3543 3544
5158 3 3535 3540 3545
5159 3 3546 3540 3545
5160 2 3542 3541 3552
5161 2 3544 3543 3552
5162 3 3540 3546 3552
5163 1 3546 3547 3552
5164 1 3546 3549 3552
5165 2 3546 3547 3548
5166 2 3546 3549 3550
5167 3 3540 3546 3551
5168 3 3552 3546 3551
5169 2 3548 3547 3558
5170 2 3550 3549 3558
5171 3 3546 3552 3558
5172 1 3552 3553 3558
5173 1 3552 3555 3558
5174 2 3552 3553 3554
5175 2 3552 3555 3556
5176 3 3546 3552 3557
5177 3 3558 3552 3557
5178 2 3554 3553 3564
5179 2 3556 3555 3564
5180 3 3552 3558 3564
5181 1 3558 3559 3564
5182 1 3558 3561 3564
5183 2 3558 3559 3560
5184 2 3558 3561 3562
5185 3 3552 3558 3563
5186 3 3564 3558 3563
5187 2 3560 3559 3570
5188 2 3562 3561 3570
5189 3 3558 3564 3570
5190 1 3564 3565 3570
5191 1 3564 3567 3570
5192 2 3564 3565 3566
5193 2 3564 3567 3568
5194 3 3558 3564 3569
5195 3 3570 3564 3569
5196 2 3566 3565 3576
5197 2 3568 3567 3576
5198 3 3564 3570 3576
5199 1 3570 3571 3576
5200 1 3570 3573 3576
5201 2 3570 3571 3572
5202 2 3570 3573 3574
5203 3 3564 3570 3575
5204 3 3576 3570 3575
5205 2 3572 3571 3582
5206 2 3574 3573 3582
5207 3 3570 3576 3582
5208 1 3576 3577 3582
5209 1 3576 3579 3582
5210 2 3576 3577 3578
5211 2 3576 3579 3580
5212 3 3570 3576 3581
5213 3 3582 3576 3581
5214 2 3578 3577 3588
5215 2 3580 3579 3588
5216 3 3576 3582 3588
5217 1 3582 3583 3588
5218 1 3582 3585 3588
5219 2 3582 3583 3584
5220 2 3582 3585 3586
5221 3 3576 3582 3587
5222 3 3588 3582 3587
5223 2 3584 3583 3594
5224 2 3586 3585 3594
5225 3 3582 3588 3594
5226 1 3588 3589 3594
5227 1 3588 3591 3594
5228 2 3588 3589 3590
5229 2 3588 3591 3592
5230 3 3582 3588 3593
5231 3 3594 3588 3593
5232 2 3590 3589 3600
5233 2 3592 3591 3600
5234 3 3588 3594 3600
5235 1 3594 3595 3600
5236 1 3594 3597 3600
5237 2 3594 3595 3596
5238 2 3594 3597 3598
5239 3 3588 3594 3599
5240 3 3600 3594 3599
5241 2 3596 3595 3606
5242 2 3598 3597 3606
5243 3 3594 3600 3606
5244 1 3600 3601 3606
5245 1 3600 3603 3606
5246 2 3600 3601 3602
5247 2 3600 3603 3604
5248 3 3594 3600 3605
5249 3 3606 3600 3605
5250 2 3602 3601 3612
5251 2 3604 3603 3612
5252 3 3600 3606 3612
5253 1 3606 3607 3612
5254 1 3606 3609 3612
5255 2 3606 3607 3608
5256 2 3606 3609 3610
5257 3 3600 3606 3611
5258 3 3612 3606 3611
5259 2 3608 3607 3618
5260 2 3610 3609 3618
5261 3 3606 3612 3618
5262 1 3612 3613 3618
5263 1 3612 3615 3618
5264 2 3612 3613 3614
5265 2 3612 3615 3616
5266 3 3606 3612 3617
5267 3 3618 3612 3617
5268 2 3614 3613 3624
5269 2 3616 3615 3624
5270 3 3612 3618 3624
5271 1 3618 3619 3624
5272 1 3618 3621 3624
5273 2 3618 3619 3620
5274 2 3618 3621 3622
5275 3 3612 3618 3623
5276 3 3624 3618 3623
5277 2 3620 3619 3630
5278 2 3622 3621 3630
5279 3 3618 3624 3630
5280 1 3624 3625 3630
5281 1 3624 3627 3630
5282 2 3624 3625 3626
5283 2 3624 3627 3628
5284 3 3618 3624 3629
5285 3 3630 3624 3629
5286 2 3626 3625 3636
5287 2 3628 3627 3636
5288 3 3624 3630 3636
5289 1 3630 3631 3636
5290 1 3630 3633 3636
5291 2 3630 3631 3632
5292 2 3630 3633 3634
5293 3 3624 3630 3635
5294 3 3636 3630 3635
5295 2 3632 3631 3642
5296 2 3634 3633 3642
5297 3 3630 3636 3642
5298 1 3636 3637 3642
5299 1 3636 3639 3642
5300 2 3636 3637 3638
5301 2 3636 3639 3640
5302 3 3630 3636 3641
5303 3 3642 3636 3641
5304 2 3638 3637 3648
5305 2 3640 3639 3648
5306 3 3636 3642 3648
5307 1 3642 3643 3648
5308 1 3642 3645 3648
5309 2 3642 3643 3644
5310 2 3642 3645 3646
5311 3 3636 3642 3647
5312 3 3648 3642 3647
5313 1 3649 3650 3654
5314 1 3649 3652 3654
5315 2 3649 3650 3651
5316 2 3649 3652 3653
5317 2 3651 3650 3660
5318 2 3653 3652 3660
5319 3 3649 3654 3660
5320 1 3654 3655 3660
5321 1 3654 3657 3660
5322 2 3654 3655 3656
5323 2 3654 3657 3658
5324 3 3649 3654 3659
5325 3 3660 3654 3659
5326 2 3656 3655 3666
5327 2 3658 3657 3666
5328 3 3654 3660 3666
5329 1 3660 3661 3666
5330 1 3660 3663 3666
5331 2 3660 3661 3662
5332 2 3660 3663 3664
5333 3 3654 3660 3665
5334 3 3666 3660 3665
5335 2 3662 3661 3672
5336 2 3664 3663 3672
5337 3 3660 3666 3672
5338 1 3666 3667 3672
5339 1 3666 3669 3672
5340 2 3666 3667 3668
5341 2 3666 3669 3670
5342 3 3660 3666 3671
5343 3 3672 3666 3671
5344 2 3668 3667 3678
5345 2 3670 3669 3678
5346 3 3666 3672 3678
5347 1 3672 3673 3678
5348 1 3672 3675 3678
5349 2 3672 3673 3674
5350 2 3672 3675 3676
5351 3 3666 3672 3677
5352 3 3678 3672 3677
5353 2 3674 3673 3684
5354 2 3676 3675 3684
5355 3 3672 3678 3684
5356 1 3678 3679 3684
5357 1 3678 3681 3684
5358 2 3678 3679 3680
5359 2 3678 3681 3682
5360 3 3672 3678 3683
5361 3 3684 3678 3683
5362 2 3680 3679 3690
5363 2 3682 3681 3690
5364 3 3678 3684 3690
5365 1 3684 3685 3690
5366 1 3684 3687 3690
5367 2 3684 3685 3686
5368 2 3684 3687 3688
5369 3 3678 3684 3689
5370 3 3690 3684 3689
5371 2 3686 3685 3696
5372 2 3688 3687 3696
5373 3 3684 3690 3696
5374 1 3690 3691 3696
5375 1 3690 3693 3696
5376 2 3690 3691 3692
5377 2 3690 3693 3694
5378 3 3684 3690 3695
5379 3 3696 3690 3695
5380 2 3692 3691 3702
5381 2 3694 3693 3702
5382 3 3690 3696 3702
5383 1 3696 3697 3702
5384 1 3696 3699 3702
5385 2 3696 3697 3698
5386 2 3696 3699 3700
5387 3 3690 3696 3701
5388 3 3702 3696 3701
5389 2 3698 3697 3708
5390 2 3700 3699 3708
5391 3 3696 3702 3708
5392 1 3702 3703 3708
5393 1 3702 3705 3708
5394 2 3702 3703 3704
5395 2 3702 3705 3706
5396 3 3696 3702 3707
5397 3 3708 3702 3707
5398 2 3704 3703 3714
5399 2 3706 3705 3714
5400 3 3702 3708 3714
5401 1 3708 3709 3714
5402 1 3708 3711 3714
5403 2 3708 3709 3710
5404 2 3708 3711 3712
5405 3 3702 3708 3713
5406 3 3714 3708 3713
5407 2 3710 3709 3720
5408 2 3712 3711 3720
5409 3 3708 3714 3720
5410 1 3714 3715 3720
5411 1 3714 3717 3720
5412 2 3714 3715 3716
5413 2 3714 3717 3718
5414 3 3708 3714 3719
5415 3 3720 3714 3719
5416 2 3716 3715 3726
5417 2 3718 3717 3726
5418 3 3714 3720 3726
5419 1 3720 3721 3726
5420 1 3720 3723 3726
5421 2 3720 3721 3722
5422 2 3720 3723 3724
5423 3 3714 3720 3725
5424 3 3726 3720 3725
5425 2 3722 3721 3732
5426 2 3724 3723 3732
5427 3 3720 3726 3732
5428 1 3726 3727 3732
5429 1 3726 3729 3732
5430 2 3726 3727 3728
5431 2 3726 3729 3730
5432 3 3720 3726 3731
5433 3 3732 3726 3731
5434 2 3728 3727 3738
5435 2 3730 3729 3738
5436 3 3726 3732 3738
5437 1 3732 3733 3738
5438 1 3732 3735 3738
5439 2 3732 3733 3734
5440 2 3732 3735 3736
5441 3 3726 3732 3737
5442 3 3738 3732 3737
5443 2 3734 3733 3744
5444 2 3736 3735 3744
5445 3 3732 3738 3744
5446 1 3738 3739 3744
5447 1 3738 3741 3744
5448 2 3738 3739 3740
5449 2 3738 3741 3742
5450 3 3732 3738 3743
5451 3 3744 3738 3743
5452 2 3740 3739 3750
5453 2 3742 3741 3750
5454 3 3738 3744 3750
5455 1 3744 3745 3750
5456 1 3744 3747 3750
5457 2 3744 3745 3746
5458 2 3744 3747 3748
5459 3 3738 3744 3749
5460 3 3750 3744 3749
5461 2 3746 3745 3756
5462 2 3748 3747 3756
5463 3 3744 3750 3756
5464 1 3750 3751 3756
5465 1 3750 3753 3756
5466 2 3750 3751 3752
5467 2 3750 3753 3754
5468 3 3744 3750 3755
5469 3 3756 3750 3755
5470 2 3752 3751 3762
5471 2 3754 3753 3762
5472 3 3750 3756 3762
5473 1 3756 3757 3762
5474 1 3756 3759 3762
5475 2 3756 3757 3758
5476 2 3756 3759 3760
5477 3 3750 3756 3761
5478 3 3762 3756 3761
5479 1 3763 3764 3768
5480 1 3763 3766 3768
5481 2 3763 3764 3765
5482 2 3763 3766 3767
5483 2 3765 3764 3774
5484 2 3767 3766 3774
5485 3 3763 3768 3774
5486 1 3768 3769 3774
5487 1 3768 3771 3774
5488 2 3768 3769 3770
5489 2 3768 3771 3772
5490 3 3763 3768 3773
5491 3 3774 3768 3773
5492 2 3770 3769 3780
5493 2 3772 3771 3780
5494 3 3768 3774 3780
5495 1 3774 3775 3780
5496 1 3774 3777 3780
5497 2 3774 3775 3776
5498 2 3774 3777 3778
5499 3 3768 3774 3779
5500 3 3780 3774 3779
5501 2 3776 3775 3786
5502 2 3778 3777 3786
5503 3 3774 3780 3786
5504 1 3780 3781 3786
5505 1 3780 3783 3786
5506 2 3780 3781 3782
5507 2 3780 3783 3784
5508 3 3774 3780 3785
5509 3 3786 3780 3785
5510 2 3782 3781 3792
5511 2 3784 3783 3792
5512 3 3780 3786 3792
5513 1 3786 3787 3792
5514 1 3786 3789 3792
5515 2 3786 3787 3788
5516 2 3786 3789 3790
5517 3 3780 3786 3791
5518 3 3792 3786 3791
5519 2 3788 3787 3798
5520 2 3790 3789 3798
5521 3 3786 3792 3798
5522 1 3792 3793 3798
5523 1 3792 3795 3798
5524 2 3792 3793 3794
5525 2 3792 3795 3796
5526 3 3786 3792 3797
5527 3 3798 3792 3797
5528 2 3794 3793 3804
5529 2 3796 3795 3804
5530 3 3792 3798 3804
5531 1 3798 3799 3804
5532 1 3798 3801 3804
5533 2 3798 3799 3800
5534 2 3798 3801 3802
5535 3 3792 3798 3803
5536 3 3804 3798 3803
5537 2 3800 3799 3810
5538 2 3802 3801 3810
5539 3 3798 3804 3810
5540 1 3804 3805 3810
5541 1 3804 3807 3810
5542 2 3804 3805 3806
5543 2 3804 3807 3808
5544 3 3798 3804 3809
5545 3 3810 3804 3809
5546 2 3806 3805 3816
5547 2 3808 3807 3816
5548 3 3804 3810 3816
5549 1 3810 3811 3816
5550 1 3810 3813 3816
5551 2 3810 3811 3812
5552 2 3810 3813 3814
5553 3 3804 3810 3815
5554 3 3816 3810 3815
5555 2 3812 3811 3822
5556 2 3814 3813 3822
5557 3 3810 3816 3822
5558 1 3816 3817 3822
5559 1 3816 3819 3822
5560 2 3816 3817 3818
5561 2 3816 3819 3820
5562 3 3810 3816 3821
5563 3 3822 3816 3821
5564 2 3818 3817 3828
5565 2 3820 3819 3828
5566 3 3816 3822 3828
5567 1 3822 3823 3828
5568 1 3822 3825 3828
5569 2 3822 3823 3824
5570 2 3822 3825 3826
5571 3 3816 3822 3827
5572 3 3828 3822 3827
5573 2 3824 3823 3834
5574 2 3826 3825 3834
5575 3 3822 3828 3834
5576 1 3828 3829 3834
5577 1 3828 3831 3834
5578 2 3828 3829 3830
5579 2 3828 3831 3832
5580 3 3822 3828 3833
5581 3 3834 3828 3833
5582 2 3830 3829 3840
5583 2 3832 3831 3840
5584 3 3828 3834 3840
5585 1 3834 3835 3840
5586 1 3834 3837 3840
5587 2 3834 3835 3836
5588 2 3834 3837 3838
5589 3 3828 3834 3839
5590 3 3840 3834 3839
5591 2 3836 3835 3846
5592 2 3838 3837 3846
5593 3 3834 3840 3846
5594 1 3840 3841 3846
5595 1 3840 3843 3846
5596 2 3840 3841 3842
5597 2 3840 3843 3844
5598 3 3834 3840 3845
5599 3 3846 3840 3845
5600 2 3842 3841 3852
5601 2 3844 3843 3852
5602 3 3840 3846 3852
5603 1 3846 3847 3852
5604 1 3846 3849 3852
5605 2 3846 3847 3848
5606 2 3846 3849 3850
5607 3 3840 3846 3851
5608 3 3852 3846 3851
5609 2 3848 3847 3858
5610 2 3850 3849 3858
5611 3 3846 3852 3858
5612 1 3852 3853 3858
5613 1 3852 3855 3858
5614 2 3852 3853 3854
5615 2 3852 3855 3856
5616 3 3846 3852 3857
5617 3 3858 3852 3857
5618 2 3854 3853 3864
5619 2 3856 3855 3864
5620 3 3852 3858 3864
5621 1 3858 3859 3864
5622 1 3858 3861 3864
5623 2 3858 3859 3860
5624 2 3858 3861 3862
5625 3 3852 3858 3863
5626 3 3864 3858 3863
5627 2 3860 3859 3870
5628 2 3862 3861 3870
5629 3 3858 3864 3870
5630 1 3864 3865 3870
5631 1 3864 3867 3870
5632 2 3864 3865 3866
5633 2 3864 3867 3868
5634 3 3858 3864 3869
5635 3 3870 3864 3869
5636 2 3866 3865 3876
5637 2 3868 3867 3876
5638 3 3864 3870 3876
5639 1 3870 3871 3876
5640 1 3870 3873 3876
5641 2 3870 3871 3872
5642 2 3870 3873 3874
5643 3 3864 3870 3875
5644 3 3876 3870 3875
5645 1 3877 3878 3882
5646 1 3877 3880 3882
5647 2 3877 3878 3879
5648 2 3877 3880 3881
5649 2 3879 3878 3888
5650 2 3881 3880 3888
5651 3 3877 3882 3888
5652 1 3882 3883 3888
5653 1 3882 3885 3888
5654 2 3882 3883 3884
5655 2 3882 3885 3886
5656 3 3877 3882 3887
5657 3 3888 3882 3887
5658 2 3884 3883 3894
5659 2 3886 3885 3894
5660 3 3882 3888 3894
5661 1 3888 3889 3894
5662 1 3888 3891 3894
5663 2 3888 3889 3890
5664 2 3888 3891 3892
5665 3 3882 3888 3893
5666 3 3894 3888 3893
5667 2 3890 3889 3900
5668 2 3892 3891 3900
5669 3 3888 3894 3900
5670 1 3894 3895 3900
5671 1 3894 3897 3900
5672 2 3894 3895 3896
5673 2 3894 3897 3898
5674 3 3888 3894 3899
5675 3 3900 3894 3899
5676 2 3896 3895 3906
5677 2 3898 3897 3906
5678 3 3894 3900 3906
5679 1 3900 3901 3906
5680 1 3900 3903 3906
5681 2 3900 3901 3902
5682 2 3900 3903 3904
5683 3 3894 3900 3905
5684 3 3906 3900 3905
5685 2 3902 3901 3912
5686 2 3904 3903 3912
5687 3 3900 3906 3912
5688 1 3906 3907 3912
5689 1 3906 3909 3912
5690 2 3906 3907 3908
5691 2 3906 3909 3910
5692 3 3900 3906 3911
5693 3 3912 3906 3911
5694 2 3908 3907 3918
5695 2 3910 3909 3918
5696 3 3906 3912 3918
5697 1 3912 3913 3918
5698 1 3912 3915 3918
5699 2 3912 3913 3914
5700 2 3912 3915 3916
5701 3 3906 3912 3917
5702 3 3918 3912 3917
5703 2 3914 3913 3924
5704 2 3916 3915 3924
5705 3 3912 3918 3924
5706 1 3918 3919 3924
5707 1 3918 3921 3924
5708 2 3918 3919 3920
5709 2 3918 3921 3922
5710 3 3912 3918 3923
5711 3 3924 3918 3923
5712 2 3920 3919 3930
5713 2 3922 3921 3930
5714 3 3918 3924 3930
5715 1 3924 3925 3930
5716 1 3924 3927 3930
5717 2 3924 3925 3926
5718 2 3924 3927 3928
5719 3 3918 3924 3929
5720 3 3930 3924 3929
5721 2 3926 3925 3936
5722 2 3928 3927 3936
5723 3 3924 3930 3936
5724 1 3930 3931 3936
5725 1 3930 3933 3936
5726 2 3930 3931 3932
5727 2 3930 3933 3934
5728 3 3924 3930 3935
5729 3 3936 3930 3935
5730 2 3932 3931 3942
5731 2 3934 3933 3942
5732 3 3930 3936 3942
5733 1 3936 3937 3942
5734 1 3936 3939 3942
5735 2 3936 3937 3938
5736 2 3936 3939 3940
5737 3 3930 3936 3941
5738 3 3942 3936 3941
5739 2 3938 3937 3948
5740 2 3940 3939 3948
5741 3 3936 3942 3948
5742 1 3942 3943 3948
5743 1 3942 3945 3948
5744 2 3942 3943 3944
5745 2 3942 3945 3946
5746 3 3936 3942 3947
5747 3 3948 3942 3947
5748 2 3944 3943 3954
5749 2 3946 3945 3954
5750 3 3942 3948 3954
5751 1 3948 3949 3954
5752 1 3948 3951 3954
5753 2 3948 3949 3950
5754 2 3948 3951 3952
5755 3 3942 3948 3953
5756 3 3954 3948 3953
5757 2 3950 3949 3960
5758 2 3952 3951 3960
5759 3 3948 3954 3960
5760 1 3954 3955 3960
5761 1 3954 3957 3960
5762 2 3954 3955 3956
5763 2 3954 3957 3958
5764 3 3948 3954 3959
5765 3 3960 3954 3959
5766 2 3956 3955 3966
5767 2 3958 3957 3966
5768 3 3954 3960 3966
5769 1 3960 3961 3966
5770 1 3960 3963 3966
5771 2 3960 3961 3962
5772 2 3960 3963 3964
5773 3 3954 3960 3965
5774 3 3966 3960 3965
5775 2 3962 3961 3972
5776 2 3964 3963 3972
5777 3 3960 3966 3972
5778 1 3966 3967 3972
5779 1 3966 3969 3972
5780 2 3966 3967 3968
5781 2 3966 3969 3970
5782 3 3960 3966 3971
5783 3 3972 3966 3971
5784 2 3968 3967 3978
5785 2 3970 3969 3978
5786 3 3966 3972 3978
5787 1 3972 3973 3978
5788 1 3972 3975 3978
5789 2 3972 3973 3974
5790 2 3972 3975 3976
5791 3 3966 3972 3977
5792 3 3978 3972 3977
5793 2 3974 3973 3984
5794 2 3976 3975 3984
5795 3 3972 3978 3984
5796 1 3978 3979 3984
5797 1 3978 3981 3984
5798 2 3978 3979 3980
5799 2 3978 3981 3982
5800 3 3972 3978 3983
5801 3 3984 3978 3983
5802 2 3980 3979 3990
5803 2 3982 3981 3990
5804 3 3978 3984 3990
5805 1 3984 3985 3990
5806 1 3984 3987 3990
5807 2 3984 3985 3986
5808 2 3984 3987 3988
5809 3 3978 3984 3989
5810 3 3990 3984 3989
5811 1 3991 3992 3996
5812 1 3991 3994 3996
5813 2 3991 3992 3993
5814 2 3991 3994 3995
5815 2 3993 3992 4002
5816 2 3995 3994 4002
5817 3 3991 3996 4002
5818 1 3996 3997 4002
5819 1 3996 3999 4002
5820 2 3996 3997 3998
5821 2 3996 3999 4000
5822 3 3991 3996 4001
5823 3 4002 3996 4001
5824 2 3998 3997 4008
5825 2 4000 3999 4008
5826 3 3996 4002 4008
5827 1 4002 4003 4008
5828 1 4002 4005 4008
5829 2 4002 4003 4004
5830 2 4002 4005 4006
5831 3 3996 4002 4007
5832 3 4008 4002 4007
5833 2 4004 4003 4014
5834 2 4006 4005 4014
5835 3 4002 4008 4014
5836 1 4008 4009 4014
5837 1 4008 4011 4014
5838 2 4008 4009 4010
5839 2 4008 4011 4012
5840 3 4002 4008 4013
5841 3 4014 4008 4013
5842 2 4010 4009 4020
5843 2 4012 4011 4020
5844 3 4008 4014 4020
5845 1 4014 4015 4020
5846 1 4014 4017 4020
5847 2 4014 4015 4016
5848 2 4014 4017 4018
5849 3 4008 4014 4019
5850 3 4020 4014 4019
5851 2 4016 4015 4026
5852 2 4018 4017 4026
5853 3 4014 4020 4026
5854 1 4020 4021 4026
5855 1 4020 4023 4026
5856 2 4020 4021 4022
5857 2 4020 4023 4024
5858 3 4014 4020 4025
5859 3 4026 4020 4025
5860 2 4022 4021 4032
5861 2 4024 4023 4032
5862 3 4020 4026 4032
5863 1 4026 4027 4032
5864 1 4026 4029 4032
5865 2 4026 4027 4028
5866 2 4026 4029 4030
5867 3 4020 4026 4031
5868 3 4032 4026 4031
5869 2 4028 4027 4038
5870 2 4030 4029 4038
5871 3 4026 4032 4038
5872 1 4032 4033 4038
5873 1 4032 4035 4038
5874 2 4032 4033 4034
5875 2 4032 4035 4036
5876 3 4026 4032 4037
5877 3 4038 4032 4037
5878 2 4034 4033 4044
5879 2 4036 4035 4044
5880 3 4032 4038 4044
5881 1 4038 4039 4044
5882 1 4038 4041 4044
5883 2 4038 4039 4040
5884 2 4038 4041 4042
5885 3 4032 4038 4043
5886 3 4044 4038 4043
5887 2 4040 4039 4050
5888 2 4042 4041 4050
5889 3 4038 4044 4050
5890 1 4044 4045 4050
5891 1 4044 4047 4050
5892 2 4044 4045 4046
5893 2 4044 4047 4048
5894 3 4038 4044 4049
5895 3 4050 4044 4049
5896 2 4046 4045 4056
5897 2 4048 4047 4056
5898 3 4044 4050 4056
5899 1 4050 4051 4056
5900 1 4050 4053 4056
5901 2 4050 4051 4052
5902 2 4050 4053 4054
5903 3 4044 4050 4055
5904 3 4056 4050 4055
5905 2 4052 4051 4062
5906 2 4054 4053 4062
5907 3 4050 4056 4062
5908 1 4056 4057 4062
5909 1 4056 4059 4062
5910 2 4056 4057 4058
5911 2 4056 4059 4060
5912 3 4050 4056 4061
5913 3 4062 4056 4061
5914 2 4058 4057 4068
5915 2 4060 4059 4068
5916 3 4056 4062 4068
5917 1 4062 4063 4068
5918 1 4062 4065 4068
5919 2 4062 4063 4064
5920 2 4062 4065 4066
5921 3 4056 4062 4067
5922 3 4068 4062 4067
5923 2 4064 4063 4074
5924 2 4066 4065 4074
5925 3 4062 4068 4074
5926 1 4068 4069 4074
5927 1 4068 4071 4074
5928 2 4068 4069 4070
5929 2 4068 4071 4072
5930 3 4062 4068 4073
5931 3 4074 4068 4073
5932 2 4070 4069 4080
5933 2 4072 4071 4080
5934 3 4068 4074 4080
5935 1 4074 4075 4080
5936 1 4074 4077 4080
5937 2 4074 4075 4076
5938 2 4074 4077 4078
5939 3 4068 4074 4079
5940 3 4080 4074 4079
5941 2 4076 4075 4086
5942 2 4078 4077 4086
5943 3 4074 4080 4086
5944 1 4080 4081 4086
5945 1 4080 4083 4086
5946 2 4080 4081 4082
5947 2 4080 4083 4084
5948 3 4074 4080 4085
5949 3 4086 4080 4085
5950 2 4082 4081 4092
5951 2 4084 4083 4092
5952 3 4080 4086 4092
5953 1 4086 4087 4092
5954 1 4086 4089 4092
5955 2 4086 4087 4088
5956 2 4086 4089 4090
5957 3 4080 4086 4091
5958 3 4092 4086 4091
5959 2 4088 4087 4098
5960 2 4090 4089 4098
5961 3 4086 4092 4098
5962 1 4092 4093 4098
5963 1 4092 4095 4098
5964 2 4092 4093 4094
5965 2 4092 4095 4096
5966 3 4086 4092 4097
5967 3 4098 4092 4097
5968 2 4094 4093 4104
5969 2 4096 4095 4104
5970 3 4092 4098 4104
5971 1 4098 4099 4104
5972 1 4098 4101 4104
5973 2 4098 4099 4100
5974 2 4098 4101 4102
5975 3 4092 4098 4103
5976 3 4104 4098 4103
5977 1 4105 4106 4110
5978 1 4105 4108 4110
5979 2 4105 4106 4107
5980 2 4105 4108 4109
5981 2 4107 4106 4116
5982 2 4109 4108 4116
5983 3 4105 4110 4116
5984 1 4110 4111 4116
5985 1 4110 4113 4116
5986 2 4110 4111 4112
5987 2 4110 4113 4114
5988 3 4105 4110 4115
5989 3 4116 4110 4115
5990 2 4112 4111 4122
5991 2 4114 4113 4122
5992 3 4110 4116 4122
5993 1 4116 4117 4122
5994 1 4116 4119 4122
5995 2 4116 4117 4118
5996 2 4116 4119 4120
5997 3 4110 4116 4121
5998 3 4122 4116 4121
5999 2 4118 4117 4128
6000 2 4120 4119 4128
6001 3 4116 4122 4128
6002 1 4122 4123 4128
6003 1 4122 4125 4128
6004 2 4122 4123 4124
6005 2 4122 4125 4126
6006 3 4116 4122 4127
6007 3 4128 4122 4127
6008 2 4124 4123 4134
6009 2 4126 4125 4134
6010 3 4122 4128 4134
6011 1 4128 4129 4134
6012 1 4128 4131 4134
6013 2 4128 4129 4130
6014 2 4128 4131 4132
6015 3 4122 4128 4133
6016 3 4134 4128 4133
6017 2 4130 4129 4140
6018 2 4132 4131 4140
6019 3 4128 4134 4140
6020 1 4134 4135 4140
6021 1 4134 4137 4140
6022 2 4134 4135 4136
6023 2 4134 4137 4138
6024 3 4128 4134 4139
6025 3 4140 4134 4139
6026 2 4136 4135 4146
6027 2 4138 4137 4146
6028 3 4134 4140 4146
6029 1 4140 4141 4146
6030 1 4140 4143 4146
6031 2 4140 4141 4142
6032 2 4140 4143 4144
6033 3 4134 4140 4145
6034 3 4146 4140 4145
6035 2 4142 4141 4152
6036 2 4144 4143 4152
6037 3 4140 4146 4152
6038 1 4146 4147 4152
6039 1 4146 4149 4152
6040 2 4146 4147 4148
6041 2 4146 4149 4150
6042 3 4140 4146 4151
6043 3 4152 4146 4151
6044 2 4148 4147 4158
6045 2 4150 4149 4158
6046 3 4146 4152 4158
6047 1 4152 4153 4158
6048 1 4152 4155 4158
6049 2 4152 4153 4154
6050 2 4152 4155 4156
6051 3 4146 4152 4157
6052 3 4158 4152 4157
6053 2 4154 4153 4164
6054 2 4156 4155 4164
6055 3 4152 4158 4164
6056 1 4158 4159 4164
6057 1 4158 4161 4164
6058 2 4158 4159 4160
6059 2 4158 4161 4162
6060 3 4152 4158 4163
6061 3 4164 4158 4163
6062 2 4160 4159 4170
6063 2 4162 4161 4170
6064 3 4158 4164 4170
6065 1 4164 4165 4170
6066 1 4164 4167 4170
6067 2 4164 4165 4166
6068 2 4164 4167 4168
6069 3 4158 4164 4169
6070 3 4170 4164 4169
6071 2 4166 4165 4176
6072 2 4168 4167 4176
6073 3 4164 4170 4176
6074 1 4170 4171 4176
6075 1 4170 4173 4176
6076 2 4170 4171 4172
6077 2 4170 4173 4174
6078 3 4164 4170 4175
6079 3 4176 4170 4175
6080 2 4172 4171 4182
6081 2 4174 4173 4182
6082 3 4170 4176 4182
6083 1 4176 4177 4182
6084 1 4176 4179 4182
6085 2 4176 4177 4178
6086 2 4176 4179 4180
6087 3 4170 4176 4181
6088 3 4182 4176 4181
6089 2 4178 4177 4188
6090 2 4180 4179 4188
6091 3 4176 4182 4188
6092 1 4182 4183 4188
6093 1 4182 4185 4188
6094 2 4182 4183 4184
6095 2 4182 4185 4186
6096 3 4176 4182 4187
6097 3 4188 4182 4187
6098 2 4184 4183 4194
6099 2 4186 4185 4194
6100 3 4182 4188 4194
6101 1 4188 4189 4194
6102 1 4188 4191 4194
6103 2 4188 4189 4190
6104 2 4188 4191 4192
6105 3 4182 4188 4193
6106 3 4194 4188 4193
6107 2 4190 4189 4200
6108 2 4192 4191 4200
6109 3 4188 4194 4200
6110 1 4194 4195 4200
6111 1 4194 4197 4200
6112 2 4194 4195 4196
6113 2 4194 4197 4198
6114 3 4188 4194 4199
6115 3 4200 4194 4199
6116 2 4196 4195 4206
6117 2 4198 4197 4206
6118 3 4194 4200 4206
6119 1 4200 4201 4206
6120 1 4200 4203 4206
6121 2 4200 4201 4202
6122 2 4200 4203 4204
6123 3 4194 4200 4205
6124 3 4206 4200 4205
6125 2 4202 4201 4212
6126 2 4204 4203 4212
6127 3 4200 4206 4212
6128 1 4206 4207 4212
6129 1 4206 4209 4212
6130 2 4206 4207 4208
6131 2 4206 4209 4210
6132 3 4200 4206 4211
6133 3 4212 4206 4211
6134 2 4208 4207 4218
6135 2 4210 4209 4218
6136 3 4206 4212 4218
6137 1 4212 4213 4218
6138 1 4212 4215 4218
6139 2 4212 4213 4214
6140 2 4212 4215 4216
6141 3 4206 4212 4217
6142 3 4218 4212 4217
6143 1 4219 4220 4224
6144 1 4219 4222 4224
6145 2 4219 4220 4221
6146 2 4219 4222 4223
6147 2 4221 4220 4230
6148 2 4223 4222 4230
6149 3 4219 4224 4230
6150 1 4224 4225 4230
6151 1 4224 4227 4230
6152 2 4224 4225 4226
6153 2 4224 4227 4228
6154 3 4219 4224 4229
6155 3 4230 4224 4229
6156 2 4226 4225 4236
6157 2 4228 4227 4236
6158 3 4224 4230 4236
6159 1 4230 4231 4236
6160 1 4230 4233 4236
6161 2 4230 4231 4232
6162 2 4230 4233 4234
6163 3 4224 4230 4235
6164 3 4236 4230 4235
6165 2 4232 4231 4242
6166 2 4234 4233 4242
6167 3 4230 4236 4242
6168 1 4236 4237 4242
6169 1 4236 4239 4242
6170 2 4236 4237 4238
6171 2 4236 4239 4240
6172 3 4230 4236 4241
6173 3 4242 4236 4241
6174 2 4238 4237 4248
6175 2 4240 4239 4248
6176 3 4236 4242 4248
6177 1 4242 4243 4248
6178 1 4242 4245 4248
6179 2 4242 4243 4244
6180 2 4242 4245 4246
6181 3 4236 4242 4247
6182 3 4248 4242 4247
6183 2 4244 4243 4254
6184 2 4246 4245 4254
6185 3 4242 4248 4254
6186 1 4248 4249 4254
6187 1 4248 4251 4254
6188 2 4248 4249 4250
6189 2 4248 4251 4252
6190 3 4242 4248 4253
6191 3 4254 4248 4253
6192 2 4250 4249 4260
6193 2 4252 4251 4260
6194 3 4248 4254 4260
6195 1 4254 4255 4260
6196 1 4254 4257 4260
6197 2 4254 4255 4256
6198 2 4254 4257 4258
6199 3 4248 4254 4259
6200 3 4260 4254 4259
6201 2 4256 4255 4266
6202 2 4258 4257 4266
6203 3 4254 4260 4266
6204 1 4260 4261 4266
6205 1 4260 4263 4266
6206 2 4260 4261 4262
6207 2 4260 4263 4264
6208 3 4254 4260 4265
6209 3 4266 4260 4265
6210 2 4262 4261 4272
6211 2 4264 4263 4272
6212 3 4260 4266 4272
6213 1 4266 4267 4272
6214 1 4266 4269 4272
6215 2 4266 4267 4268
6216 2 4266 4269 4270
6217 3 4260 4266 4271
6218 3 4272 4266 4271
6219 2 4268 4267 4278
6220 2 4270 4269 4278
6221 3 4266 4272 4278
6222 1 4272 4273 4278
6223 1 4272 4275 4278
6224 2 4272 4273 4274
6225 2 4272 4275 4276
6226 3 4266 4272 4277
6227 3 4278 4272 4277
6228 2 4274 4273 4284
6229 2 4276 4275 4284
6230 3 4272 4278 4284
6231 1 4278 4279 4284
6232 1 4278 4281 4284
6233 2 4278 4279 4280
6234 2 4278 4281 4282
6235 3 4272 4278 4283
6236 3 4284 4278 4283
6237 2 4280 4279 4290
6238 2 4282 4281 4290
6239 3 4278 4284 4290
6240 1 4284 4285 4290
6241 1 4284 4287 4290
6242 2 4284 4285 4286
6243 2 4284 4287 4288
6244 3 4278 4284 4289
6245 3 4290 4284 4289
6246 2 4286 4285 4296
6247 2 4288 4287 4296
6248 3 4284 4290 4296
6249 1 4290 4291 4296
6250 1 4290 4293 4296
6251 2 4290 4291 4292
6252 2 4290 4293 4294
6253 3 4284 4290 4295
6254 3 4296 4290 4295
6255 2 4292 4291 4302
6256 2 4294 4293 4302
6257 3 4290 4296 4302
6258 1 4296 4297 4302
6259 1 4296 4299 4302
6260 2 4296 4297 4298
6261 2 4296 4299 4300
6262 3 4290 4296 4301
6263 3 4302 4296 4301
6264 2 4298 4297 4308
6265 2 4300 4299 4308
6266 3 4296 4302 4308
6267 1 4302 4303 4308
6268 1 4302 4305 4308
6269 2 4302 4303 4304
6270 2 4302 4305 4306
6271 3 4296 4302 4307
6272 3 4308 4302 4307
6273 2 4304 4303 4314
6274 2 4306 4305 4314
6275 3 4302 4308 4314
6276 1 4308 4309 4314
6277 1 4308 4311 4314
6278 2 4308 4309 4310
6279 2 4308 4311 4312
6280 3 4302 4308 4313
6281 3 4314 4308 4313
6282 2 4310 4309 4320
6283 2 4312 4311 4320
6284 3 4308 4314 4320
6285 1 4314 4315 4320
6286 1 4314 4317 4320
6287 2 4314 4315 4316
6288 2 4314 4317 4318
6289 3 4308 4314 4319
6290 3 4320 4314 4319
6291 2 4316 4315 4326
6292 2 4318 4317 4326
6293 3 4314 4320 4326
6294 1 4320 4321 4326
6295 1 4320 4323 4326
6296 2 4320 4321 4322
6297 2 4320 4323 4324
6298 3 4314 4320 4325
6299 3 4326 4320 4325
6300 2 4322 4321 4332
6301 2 4324 4323 4332
6302 3 4320 4326 4332
6303 1 4326 4327 4332
6304 1 4326 4329 4332
6305 2 4326 4327 4328
6306 2 4326 4329 4330
6307 3 4320 4326 4331
6308 3 4332 4326 4331
6309 1 4333 4334 4338
6310 1 4333 4336 4338
6311 2 4333 4334 4335
6312 2 4333 4336 4337
6313 2 4335 4334 4344
6314 2 4337 4336 4344
6315 3 4333 4338 4344
6316 1 4338 4339 4344
6317 1 4338 4341 4344
6318 2 4338 4339 4340
6319 2 4338 4341 4342
6320 3 4333 4338 4343
6321 3 4344 4338 4343
6322 2 4340 4339 4350
6323 2 4342 4341 4350
6324 3 4338 4344 4350
6325 1 4344 4345 4350
6326 1 4344 4347 4350
6327 2 4344 4345 4346
6328 2 4344 4347 4348
6329 3 4338 4344 4349
6330 3 4350 4344 4349
6331 2 4346 4345 4356
6332 2 4348 4347 4356
6333 3 4344 4350 4356
6334 1 4350 4351 4356
6335 1 4350 4353 4356
6336 2 4350 4351 4352
6337 2 4350 4353 4354
6338 3 4344 4350 4355
6339 3 4356 4350 4355
6340 2 4352 4351 4362
6341 2 4354 4353 4362
6342 3 4350 4356 4362
6343 1 4356 4357 4362
6344 1 4356 4359 4362
6345 2 4356 4357 4358
6346 2 4356 4359 4360
6347 3 4350 4356 4361
6348 3 4362 4356 4361
6349 2 4358 4357 4368
6350 2 4360 4359 4368
6351 3 4356 4362 4368
6352 1 4362 4363 4368
6353 1 4362 4365 4368
6354 2 4362 4363 4364
6355 2 4362 4365 4366
6356 3 4356 4362 4367
6357 3 4368 4362 4367
6358 2 4364 4363 4374
6359 2 4366 4365 4374
6360 3 4362 4368 4374
6361 1 4368 4369 4374
6362 1 4368 4371 4374
6363 2 4368 4369 4370
6364 2 4368 4371 4372
6365 3 4362 4368 4373
6366 3 4374 4368 4373
6367 2 4370 4369 4380
6368 2 4372 4371 4380
6369 3 4368 4374 4380
6370 1 4374 4375 4380
6371 1 4374 4377 4380
6372 2 4374 4375 4376
6373 2 4374 4377 4378
6374 3 4368 4374 4379
6375 3 4380 4374 4379
6376 2 4376 4375 4386
6377 2 4378 4377 4386
6378 3 4374 4380 4386
6379 1 4380 4381 4386
6380 1 4380 4383 4386
6381 2 4380 4381 4382
6382 2 4380 4383 4384
6383 3 4374 4380 4385
6384 3 4386 4380 4385
6385 2 4382 4381 4392
6386 2 4384 4383 4392
6387 3 4380 4386 4392
6388 1 4386 4387 4392
6389 1 4386 4389 4392
6390 2 4386 4387 4388
6391 2 4386 4389 4390
6392 3 4380 4386 4391
6393 3 4392 4386 4391
6394 2 4388 4387 4398
6395 2 4390 4389 4398
6396 3 4386 4392 4398
6397 1 4392 4393 4398
6398 1 4392 4395 4398
6399 2 4392 4393 4394
6400 2 4392 4395 4396
6401 3 4386 4392 4397
6402 3 4398 4392 4397
6403 2 4394 4393 4404
6404 2 4396 4395 4404
6405 3 4392 4398 4404
6406 1 4398 4399 4404
6407 1 4398 4401 4404
6408 2 4398 4399 4400
6409 2 4398 4401 4402
6410 3 4392 4398 4403
6411 3 4404 4398 4403
6412 2 4400 4399 4410
6413 2 4402 4401 4410
6414 3 4398 4404 4410
6415 1 4404 4405 4410
6416 1 4404 4407 4410
6417 2 4404 4405 4406
6418 2 4404 4407 4408
6419 3 4398 4404 4409
6420 3 4410 4404 4409
6421 2 4406 4405 4416
6422 2 4408 4407 4416
6423 3 4404 4410 4416
6424 1 4410 4411 4416
6425 1 4410 4413 4416
6426 2 4410 4411 4412
6427 2 4410 4413 4414
6428 3 4404 4410 4415
6429 3 4416 4410 4415
6430 2 4412 4411 4422
6431 2 4414 4413 4422
6432 3 4410 4416 4422
6433 1 4416 4417 4422
6434 1 4416 4419 4422
6435 2 4416 4417 4418
6436 2 4416 4419 4420
6437 3 4410 4416 4421
6438 3 4422 4416 4421
6439 2 4418 4417 4428
6440 2 4420 4419 4428
6441 3 4416 4422 4428
6442 1 4422 4423 4428
6443 1 4422 4425 4428
6444 2 4422 4423 4424
6445 2 4422 4425 4426
6446 3 4416 4422 4427
6447 3 4428 4422 4427
6448 2 4424 4423 4434
6449 2 4426 4425 4434
6450 3 4422 4428 4434
6451 1 4428 4429 4434
6452 1 4428 4431 4434
6453 2 4428 4429 4430
6454 2 4428 4431 4432
6455 3 4422 4428 4433
6456 3 4434 4428 4433
6457 2 4430 4429 4440
6458 2 4432 4431 4440
6459 3 4428 4434 4440
6460 1 4434 4435 4440
6461 1 4434 4437 4440
6462 2 4434 4435 4436
6463 2 4434 4437 4438
6464 3 4428 4434 4439
6465 3 4440 4434 4439
6466 2 4436 4435 4446
6467 2 4438 4437 4446
6468 3 4434 4440 4446
6469 1 4440 4441 4446
6470 1 4440 4443 4446
6471 2 4440 4441 4442
6472 2 4440 4443 4444
6473 3 4434 4440 4445
6474 3 4446 4440 4445
6475 1 4447 4448 4452
6476 1 4447 4450 4452
6477 2 4447 4448 4449
6478 2 4447 4450 4451
6479 2 4449 4448 4458
6480 2 4451 4450 4458
6481 3 4447 4452 4458
6482 1 4452 4453 4458
6483 1 4452 4455 4458
6484 2 4452 4453 4454
6485 2 4452 4455 4456
6486 3 4447 4452 4457
6487 3 4458 4452 4457
6488 2 4454 4453 4464
6489 2 4456 4455 4464
6490 3 4452 4458 4464
6491 1 4458 4459 4464
6492 1 4458 4461 4464
6493 2 4458 4459 4460
6494 2 4458 4461 4462
6495 3 4452 4458 4463
6496 3 4464 4458 4463
6497 2 4460 4459 4470
6498 2 4462 4461 4470
6499 3 4458 4464 4470
6500 1 4464 4465 4470
6501 1 4464 4467 4470
6502 2 4464 4465 4466
6503 2 4464 4467 4468
6504 3 4458 4464 4469
6505 3 4470 4464 4469
6506 2 4466 4465 4476
6507 2 4468 4467 4476
6508 3 4464 4470 4476
6509 1 4470 4471 4476
6510 1 4470 4473 4476
6511 2 4470 4471 4472
6512 2 4470 4473 4474
6513 3 4464 4470 4475
6514 3 4476 4470 4475
6515 2 4472 4471 4482
6516 2 4474 4473 4482
6517 3 4470 4476 4482
6518 1 4476 4477 4482
6519 1 4476 4479 4482
6520 2 4476 4477 4478
6521 2 4476 4479 4480
6522 3 4470 4476 4481
6523 3 4482 4476 4481
6524 2 4478 4477 4488
6525 2 4480 4479 4488
6526 3 4476 4482 4488
6527 1 4482 4483 4488
6528 1 4482 4485 4488
6529 2 4482 4483 4484
6530 2 4482 4485 4486
6531 3 4476 4482 4487
6532 3 4488 4482 4487
6533 2 4484 4483 4494
6534 2 4486 4485 4494
6535 3 4482 4488 4494
6536 1 4488 4489 4494
6537 1 4488 4491 4494
6538 2 4488 4489 4490
6539 2 4488 4491 4492
6540 3 4482 4488 4493
6541 3 4494 4488 4493
6542 2 4490 4489 4500
6543 2 4492 4491 4500
6544 3 4488 4494 4500
6545 1 4494 4495 4500
6546 1 4494 4497 4500
6547 2 4494 4495 4496
6548 2 4494 4497 4498
6549 3 4488 4494 4499
6550 3 4500 4494 4499
6551 2 4496 4495 4506
6552 2 4498 4497 4506
6553 3 4494 4500 4506
6554 1 4500 4501 4506
6555 1 4500 4503 4506
6556 2 4500 4501 4502
6557 2 4500 4503 4504
6558 3 4494 4500 4505
6559 3 4506 4500 4505
6560 2 4502 4501 4512
6561 2 4504 4503 4512
6562 3 4500 4506 4512
6563 1 4506 4507 4512
6564 1 4506 4509 4512
6565 2 4506 4507 4508
6566 2 4506 4509 4510
6567 3 4500 4506 4511
6568 3 4512 4506 4511
6569 2 4508 4507 4518
6570 2 4510 4509 4518
6571 3 4506 4512 4518
6572 1 4512 4513 4518
6573 1 4512 4515 4518
6574 2 4512 4513 4514
6575 2 4512 4515 4516
6576 3 4506 4512 4517
6577 3 4518 4512 4517
6578 2 4514 4513 4524
6579 2 4516 4515 4524
6580 3 4512 4518 4524
6581 1 4518 4519 4524
6582 1 4518 4521 4524
6583 2 4518 4519 4520
6584 2 4518 4521 4522
6585 3 4512 4518 4523
6586 3 4524 4518 4523
6587 2 4520 4519 4530
6588 2 4522 4521 4530
6589 3 4518 4524 4530
6590 1 4524 4525 4530
6591 1 4524 4527 4530
6592 2 4524 4525 4526
6593 2 4524 4527 4528
6594 3 4518 4524 4529
6595 3 4530 4524 4529
6596 2 4526 4525 4536
6597 2 4528 4527 4536
6598 3 4524 4530 4536
6599 1 4530 4531 4536
6600 1 4530 4533 4536
6601 2 4530 4531 4532
6602 2 4530 4533 4534
6603 3 4524 4530 4535
6604 3 4536 4530 4535
6605 2 4532 4531 4542
6606 2 4534 4533 4542
6607 3 4530 4536 4542
6608 1 4536 4537 4542
6609 1 4536 4539 4542
6610 2 4536 4537 4538
6611 2 4536 4539 4540
6612 3 4530 4536 4541
6613 3 4542 4536 4541
6614 2 4538 4537 4548
6615 2 4540 4539 4548
6616 3 4536 4542 4548
6617 1 4542 4543 4548
6618 1 4542 4545 4548
6619 2 4542 4543 4544
6620 2 4542 4545 4546
6621 3 4536 4542 4547
6622 3 4548 4542 4547
6623 2 4544 4543 4554
6624 2 4546 4545 4554
6625 3 4542 4548 4554
6626 1 4548 4549 4554
6627 1 4548 4551 4554
6628 2 4548 4549 4550
6629 2 4548 4551 4552
6630 3 4542 4548 4553
6631 3 4554 4548 4553
6632 2 4550 4549 4560
6633 2 4552 4551 4560
6634 3 4548 4554 4560
6635 1 4554 4555 4560
6636 1 4554 4557 4560
6637 2 4554 4555 4556
6638 2 4554 4557 4558
6639 3 4548 4554 4559
6640 3 4560 4554 4559
6641 1 4561 4562 4566
6642 1 4561 4564 4566
6643 2 4561 4562 4563
6644 2 4561 4564 4565
6645 2 4563 4562 4572
6646 2 4565 4564 4572
6647 3 4561 4566 4572
6648 1 4566 4567 4572
6649 1 4566 4569 4572
6650 2 4566 4567 4568
6651 2 4566 4569 4570
6652 3 4561 4566 4571
6653 3 4572 4566 4571
6654 2 4568 4567 4578
6655 2 4570 4569 4578
6656 3 4566 4572 4578
6657 1 4572 4573 4578
6658 1 4572 4575 4578
6659 2 4572 4573 4574
6660 2 4572 4575 4576
6661 3 4566 4572 4577
6662 3 4578 4572 4577
6663 2 4574 4573 4584
6664 2 4576 4575 4584
6665 3 4572 4578 4584
6666 1 4578 4579 4584
6667 1 4578 4581 4584
6668 2 4578 4579 4580
6669 2 4578 4581 4582
6670 3 4572 4578 4583
6671 3 4584 4578 4583
6672 2 4580 4579 4590
6673 2 4582 4581 4590
6674 3 4578 4584 4590
6675 1 4584 4585 4590
6676 1 4584 4587 4590
6677 2 4584 4585 4586
6678 2 4584 4587 4588
6679 3 4578 4584 4589
6680 3 4590 4584 4589
6681 2 4586 4585 4596
6682 2 4588 4587 4596
6683 3 4584 4590 4596
6684 1 4590 4591 4596
6685 1 4590 4593 4596
6686 2 4590 4591 4592
6687 2 4590 4593 4594
6688 3 4584 4590 4595
6689 3 4596 4590 4595
6690 2 4592 4591 4602
6691 2 4594 4593 4602
6692 3 4590 4596 4602
6693 1 4596 4597 4602
6694 1 4596 4599 4602
6695 2 4596 4597 4598
6696 2 4596 4599 4600
6697 3 4590 4596 4601
6698 3 4602 4596 4601
6699 2 4598 4597 4608
6700 2 4600 4599 4608
6701 3 4596 4602 4608
6702 1 4602 4603 4608
6703 1 4602 4605 4608
6704 2 4602 4603 4604
6705 2 4602 4605 4606
6706 3 4596 4602 4607
6707 3 4608 4602 4607
6708 2 4604 4603 4614
6709 2 4606 4605 4614
6710 3 4602 4608 4614
6711 1 4608 4609 4614
6712 1 4608 4611 4614
6713 2 4608 4609 4610
6714 2 4608 4611 4612
6715 3 4602 4608 4613
6716 3 4614 4608 4613
6717 2 4610 4609 4620
6718 2 4612 4611 4620
6719 3 4608 4614 4620
6720 1 4614 4615 4620
6721 1 4614 4617 4620
6722 2 4614 4615 4616
6723 2 4614 4617 4618
6724 3 4608 4614 4619
6725 3 4620 4614 4619
6726 2 4616 4615 4626
6727 2 4618 4617 4626
6728 3 4614 4620 4626
6729 1 4620 4621 4626
6730 1 4620 4623 4626
6731 2 4620 4621 4622
6732 2 4620 4623 4624
6733 3 4614 4620 4625
6734 3 4626 4620 4625
6735 2 4622 4621 4632
6736 2 4624 4623 4632
6737 3 4620 4626 4632
6738 1 4626 4627 4632
6739 1 4626 4629 4632
6740 2 4626 4627 4628
6741 2 4626 4629 4630
6742 3 4620 4626 4631
6743 3 4632 4626 4631
6744 2 4628 4627 4638
6745 2 4630 4629 4638
6746 3 4626 4632 4638
6747 1 4632 4633 4638
6748 1 4632 4635 4638
6749 2 4632 4633 4634
6750 2 4632 4635 4636
6751 3 4626 4632 4637
6752 3 4638 4632 4637
6753 2 4634 4633 4644
6754 2 4636 4635 4644
6755 3 4632 4638 4644
6756 1 4638 4639 4644
6757 1 4638 4641 4644
6758 2 4638 4639 4640
6759 2 4638 4641 4642
6760 3 4632 4638 4643
6761 3 4644 4638 4643
6762 2 4640 4639 4650
6763 2 4642 4641 4650
6764 3 4638 4644 4650
6765 1 4644 4645 4650
6766 1 4644 4647 4650
6767 2 4644 4645 4646
6768 2 4644 4647 4648
6769 3 4638 4644 4649
6770 3 4650 4644 4649
6771 2 4646 4645 4656
6772 2 4648 4647 4656
6773 3 4644 4650 4656
6774 1 4650 4651 4656
6775 1 4650 4653 4656
6776 2 4650 4651 4652
6777 2 4650 4653 4654
6778 3 4644 4650 4655
6779 3 4656 4650 4655
6780 2 4652 4651 4662
6781 2 4654 4653 4662
6782 3 4650 4656 4662
6783 1 4656 4657 4662
6784 1 4656 4659 4662
6785 2 4656 4657 4658
6786 2 4656 4659 4660
6787 3 4650 4656 4661
6788 3 4662 4656 4661
6789 2 4658 4657 4668
6790 2 4660 4659 4668
6791 3 4656 4662 4668
6792 1 4662 4663 4668
6793 1 4662 4665 4668
6794 2 4662 4663 4664
6795 2 4662 4665 4666
6796 3 4656 4662 4667
6797 3 4668 4662 4667
6798 2 4664 4663 4674
6799 2 4666 4665 4674
6800 3 4662 4668 4674
6801 1 4668 4669 4674
6802 1 4668 4671 4674
6803 2 4668 4669 4670
6804 2 4668 4671 4672
6805 3 4662 4668 4673
6806 3 4674 4668 4673
6807 1 4675 4676 4680
6808 1 4675 4678 4680
6809 2 4675 4676 4677
6810 2 4675 4678 4679
6811 2 4677 4676 4686
6812 2 4679 4678 4686
6813 3 4675 4680 4686
6814 1 4680 4681 4686
6815 1 4680 4683 4686
6816 2 4680 4681 4682
6817 2 4680 4683 4684
6818 3 4675 4680 4685
6819 3 4686 4680 4685
6820 2 4682 4681 4692
6821 2 4684 4683 4692
6822 3 4680 4686 4692
6823 1 4686 4687 4692
6824 1 4686 4689 4692
6825 2 4686 4687 4688
6826 2 4686 4689 4690
6827 3 4680 4686 4691
6828 3 4692 4686 4691
6829 2 4688 4687 4698
6830 2 4690 4689 4698
6831 3 4686 4692 4698
6832 1 4692 4693 4698
6833 1 4692 4695 4698
6834 2 4692 4693 4694
6835 2 4692 4695 4696
6836 3 4686 4692 4697
6837 3 4698 4692 4697
6838 2 4694 4693 4704
6839 2 4696 4695 4704
6840 3 4692 4698 4704
6841 1 4698 4699 4704
6842 1 4698 4701 4704
6843 2 4698 4699 4700
6844 2 4698 4701 4702
6845 3 4692 4698 4703
6846 3 4704 4698 4703
6847 2 4700 4699 4710
6848 2 4702 4701 4710
6849 3 4698 4704 4710
6850 1 4704 4705 4710
6851 1 4704 4707 4710
6852 2 4704 4705 4706
6853 2 4704 4707 4708
6854 3 4698 4704 4709
6855 3 4710 4704 4709
6856 2 4706 4705 4716
6857 2 4708 4707 4716
6858 3 4704 4710 4716
6859 1 4710 4711 4716
6860 1 4710 4713 4716
6861 2 4710 4711 4712
6862 2 4710 4713 4714
6863 3 4704 4710 4715
6864 3 4716 4710 4715
6865 2 4712 4711 4722
6866 2 4714 4713 4722
6867 3 4710 4716 4722
6868 1 4716 4717 4722
6869 1 4716 4719 4722
6870 2 4716 4717 4718
6871 2 4716 4719 4720
6872 3 4710 4716 4721
6873 3 4722 4716 4721
6874 2 4718 4717 4728
6875 2 4720 4719 4728
6876 3 4716 4722 4728
6877 1 4722 4723 4728
6878 1 4722 4725 4728
6879 2 4722 4723 4724
6880 2 4722 4725 4726
6881 3 4716 4722 4727
6882 3 4728 4722 4727
6883 2 4724 4723 4734
6884 2 4726 4725 4734
6885 3 4722 4728 4734
6886 1 4728 4729 4734
6887 1 4728 4731 4734
6888 2 4728 4729 4730
6889 2 4728 4731 4732
6890 3 4722 4728 4733
6891 3 4734 4728 4733
6892 2 4730 4729 4740
6893 2 4732 4731 4740
6894 3 4728 4734 4740
6895 1 4734 4735 4740
6896 1 4734 4737 4740
6897 2 4734 4735 4736
6898 2 4734 4737 4738
6899 3 4728 4734 4739
6900 3 4740 4734 4739
6901 2 4736 4735 4746
6902 2 4738 4737 4746
6903 3 4734 4740 4746
6904 1 4740 4741 4746
6905 1 4740 4743 4746
6906 2 4740 4741 4742
6907 2 4740 4743 4744
6908 3 4734 4740 4745
6909 3 4746 4740 4745
6910 2 4742 4741 4752
6911 2 4744 4743 4752
6912 3 4740 4746 4752
6913 1 4746 4747 4752
6914 1 4746 4749 4752
6915 2 4746 4747 4748
6916 2 4746 4749 4750
6917 3 4740 4746 4751
6918 3 4752 4746 4751
6919 2 4748 4747 4758
6920 2 4750 4749 4758
6921 3 4746 4752 4758
6922 1 4752 4753 4758
6923 1 4752 4755 4758
6924 2 4752 4753 4754
6925 2 4752 4755 4756
6926 3 4746 4752 4757
6927 3 4758 4752 4757
6928 2 4754 4753 4764
6929 2 4756 4755 4764
6930 3 4752 4758 4764
6931 1 4758 4759 4764
6932 1 4758 4761 4764
6933 2 4758 4759 4760
6934 2 4758 4761 4762
6935 3 4752 4758 4763
6936 3 4764 4758 4763
6937 2 4760 4759 4770
6938 2 4762 4761 4770
6939 3 4758 4764 4770
6940 1 4764 4765 4770
6941 1 4764 4767 4770
6942 2 4764 4765 4766
6943 2 4764 4767 4768
6944 3 4758 4764 4769
6945 3 4770 4764 4769
6946 2 4766 4765 4776
6947 2 4768 4767 4776
6948 3 4764 4770 4776
6949 1 4770 4771 4776
6950 1 4770 4773 4776
6951 2 4770 4771 4772
6952 2 4770 4773 4774
6953 3 4764 4770 4775
6954 3 4776 4770 4775
6955 2 4772 4771 4782
6956 2 4774 4773 4782
6957 3 4770 4776 4782
6958 1 4776 4777 4782
6959 1 4776 4779 4782
6960 2 4776 4777 4778
6961 2 4776 4779 4780
6962 3 4770 4776 4781
6963 3 4782 4776 4781
6964 2 4778 4777 4788
6965 2 4780 4779 4788
6966 3 4776 4782 4788
6967 1 4782 4783 4788
6968 1 4782 4785 4788
6969 2 4782 4783 4784
6970 2 4782 4785 4786
6971 3 4776 4782 4787
6972 3 4788 4782 4787
6973 1 4789 4790 4794
6974 1 4789 4792 4794
6975 2 4789 4790 4791
6976 2 4789 4792 4793
6977 2 4791 4790 4800
6978 2 4793 4792 4800
6979 3 4789 4794 4800
6980 1 4794 4795 4800
6981 1 4794 4797 4800
6982 2 4794 4795 4796
6983 2 4794 4797 4798
6984 3 4789 4794 4799
6985 3 4800 4794 4799
6986 2 4796 4795 4806
6987 2 4798 4797 4806
6988 3 4794 4800 4806
6989 1 4800 4801 4806
6990 1 4800 4803 4806
6991 2 4800 4801 4802
6992 2 4800 4803 4804
6993 3 4794 4800 4805
6994 3 4806 4800 4805
6995 2 4802 4801 4812
6996 2 4804 4803 4812
6997 3 4800 4806 4812
6998 1 4806 4807 4812
6999 1 4806 4809 4812
7000 2 4806 4807 4808
7001 2 4806 4809 4810
7002 3 4800 4806 4811
7003 3 4812 4806 4811
7004 2 4808 4807 4818
7005 2 4810 4809 4818
7006 3 4806 4812 4818
7007 1 4812 4813 4818
7008 1 4812 4815 4818
7009 2 4812 4813 4814
7010 2 4812 4815 4816
7011 3 4806 4812 4817
7012 3 4818 4812 4817
7013 2 4814 4813 4824
7014 2 4816 4815 4824
7015 3 4812 4818 4824
7016 1 4818 4819 4824
7017 1 4818 4821 4824
7018 2 4818 4819 4820
7019 2 4818 4821 4822
7020 3 4812 4818 4823
7021 3 4824 4818 4823
7022 2 4820 4819 4830
7023 2 4822 4821 4830
7024 3 4818 4824 4830
7025 1 4824 4825 4830
7026 1 4824 4827 4830
7027 2 4824 4825 4826
7028 2 4824 4827 4828
7029 3 4818 4824 4829
7030 3 4830 4824 4829
7031 2 4826 4825 4836
7032 2 4828 4827 4836
7033 3 4824 4830 4836
7034 1 4830 4831 4836
7035 1 4830 4833 4836
7036 2 4830 4831 4832
7037 2 4830 4833 4834
7038 3 4824 4830 4835
7039 3 4836 4830 4835
7040 2 4832 4831 4842
7041 2 4834 4833 4842
7042 3 4830 4836 4842
7043 1 4836 4837 4842
7044 1 4836 4839 4842
7045 2 4836 4837 4838
7046 2 4836 4839 4840
7047 3 4830 4836 4841
7048 3 4842 4836 4841
7049 2 4838 4837 4848
7050 2 4840 4839 4848
7051 3 4836 4842 4848
7052 1 4842 4843 4848
7053 1 4842 4845 4848
7054 2 4842 4843 4844
7055 2 4842 4845 4846
7056 3 4836 4842 4847
7057 3 4848 4842 4847
7058 2 4844 4843 4854
7059 2 4846 4845 4854
7060 3 4842 4848 4854
7061 1 4848 4849 4854
7062 1 4848 4851 4854
7063 2 4848 4849 4850
7064 2 4848 4851 4852
7065 3 4842 4848 4853
7066 3 4854 4848 4853
7067 2 4850 4849 4860
7068 2 4852 4851 4860
7069 3 4848 4854 4860
7070 1 4854 4855 4860
7071 1 4854 4857 4860
7072 2 4854 4855 4856
7073 2 4854 4857 4858
7074 3 4848 4854 4859
7075 3 4860 4854 4859
7076 2 4856 4855 4866
7077 2 4858 4857 4866
7078 3 4854 4860 4866
7079 1 4860 4861 4866
7080 1 4860 4863 4866
7081 2 4860 4861 4862
7082 2 4860 4863 4864
7083 3 4854 4860 4865
7084 3 4866 4860 4865
7085 2 4862 4861 4872
7086 2 4864 4863 4872
7087 3 4860 4866 4872
7088 1 4866 4867 4872
7089 1 4866 4869 4872
7090 2 4866 4867 4868
7091 2 4866 4869 4870
7092 3 4860 4866 4871
7093 3 4872 4866 4871
7094 2 4868 4867 4878
7095 2 4870 4869 4878
7096 3 4866 4872 4878
7097 1 4872 4873 4878
7098 1 4872 4875 4878
7099 2 4872 4873 4874
7100 2 4872 4875 4876
7101 3 4866 4872 4877
7102 3 4878 4872 4877
7103 2 4874 4873 4884
7104 2 4876 4875 4884
7105 3 4872 4878 4884
7106 1 4878 4879 4884
7107 1 4878 4881 4884
7108 2 4878 4879 4880
7109 2 4878 4881 4882
7110 3 4872 4878 4883
7111 3 4884 4878 4883
7112 2 4880 4879 4890
7113 2 4882 4881 4890
7114 3 4878 4884 4890
7115 1 4884 4885 4890
7116 1 4884 4887 4890
7117 2 4884 4885 4886
7118 2 4884 4887 4888
7119 3 4878 4884 4889
7120 3 4890 4884 4889
7121 2 4886 4885 4896
7122 2 4888 4887 4896
7123 3 4884 4890 4896
7124 1 4890 4891 4896
7125 1 4890 4893 4896
7126 2 4890 4891 4892
7127 2 4890 4893 4894
7128 3 4884 4890 4895
7129 3 4896 4890 4895
7130 2 4892 4891 4902
7131 2 4894 4893 4902
7132 3 4890 4896 4902
7133 1 4896 4897 4902
7134 1 4896 4899 4902
7135 2 4896 4897 4898
7136 2 4896 4899 4900
7137 3 4890 4896 4901
7138 3 4902 4896 4901
7139 1 4903 4904 4908
7140 1 4903 4906 4908
7141 2 4903 4904 4905
7142 2 4903 4906 4907
7143 2 4905 4904 4914
7144 2 4907 4906 4914
7145 3 4903 4908 4914
7146 1 4908 4909 4914
7147 1 4908 4911 4914
7148 2 4908 4909 4910
7149 2 4908 4911 4912
7150 3 4903 4908 4913
7151 3 4914 4908 4913
7152 2 4910 4909 4920
7153 2 4912 4911 4920
7154 3 4908 4914 4920
7155 1 4914 4915 4920
7156 1 4914 4917 4920
7157 2 4914 4915 4916
7158 2 4914 4917 4918
7159 3 4908 4914 4919
7160 3 4920 4914 4919
7161 2 4916 4915 4926
7162 2 4918 4917 4926
7163 3 4914 4920 4926
7164 1 4920 4921 4926
7165 1 4920 4923 4926
7166 2 4920 4921 4922
7167 2 4920 4923 4924
7168 3 4914 4920 4925
7169 3 4926 4920 4925
7170 2 4922 4921 4932
7171 2 4924 4923 4932
7172 3 4920 4926 4932
7173 1 4926 4927 4932
7174 1 4926 4929 4932
7175 2 4926 4927 4928
7176 2 4926 4929 4930
7177 3 4920 4926 4931
7178 3 4932 4926 4931
7179 2 4928 4927 4938
7180 2 4930 4929 4938
7181 3 4926 4932 4938
7182 1 4932 4933 4938
7183 1 4932 4935 4938
7184 2 4932 4933 4934
7185 2 4932 4935 4936
7186 3 4926 4932 4937
7187 3 4938 4932 4937
7188 2 4934 4933 4944
7189 2 4936 4935 4944
7190 3 4932 4938 4944
7191 1 4938 4939 4944
7192 1 4938 4941 4944
7193 2 4938 4939 4940
7194 2 4938 4941 4942
7195 3 4932 4938 4943
7196 3 4944 4938 4943
7197 2 4940 4939 4950
7198 2 4942 4941 4950
7199 3 4938 4944 4950
7200 1 4944 4945 4950
7201 1 4944 4947 4950
7202 2 4944 4945 4946
7203 2 4944 4947 4948
7204 3 4938 4944 4949
7205 3 4950 4944 4949
7206 2 4946 4945 4956
7207 2 4948 4947 4956
7208 3 4944 4950 4956
7209 1 4950 4951 4956
7210 1 4950 4953 4956
7211 2 4950 4951 4952
7212 2 4950 4953 4954
7213 3 4944 4950 4955
7214 3 4956 4950 4955
7215 2 4952 4951 4962
7216 2 4954 4953 4962
7217 3 4950 4956 4962
7218 1 4956 4957 4962
7219 1 4956 4959 4962
7220 2 4956 4957 4958
7221 2 4956 4959 4960
7222 3 4950 4956 4961
7223 3 4962 4956 4961
7224 2 4958 4957 4968
7225 2 4960 4959 4968
7226 3 4956 4962 4968
7227 1 4962 4963 4968
7228 1 4962 4965 4968
7229 2 4962 4963 4964
7230 2 4962 4965 4966
7231 3 4956 4962 4967
7232 3 4968 4962 4967
7233 2 4964 4963 4974
7234 2 4966 4965 4974
7235 3 4962 4968 4974
7236 1 4968 4969 4974
7237 1 4968 4971 4974
7238 2 4968 4969 4970
7239 2 4968 4971 4972
7240 3 4962 4968 4973
7241 3 4974 4968 4973
7242 2 4970 4969 4980
7243 2 4972 4971 4980
7244 3 4968 4974 4980
7245 1 4974 4975 4980
7246 1 4974 4977 4980
7247 2 4974 4975 4976
7248 2 4974 4977 4978
7249 3 4968 4974 4979
7250 3 4980 4974 4979
7251 2 4976 4975 4986
7252 2 4978 4977 4986
7253 3 4974 4980 4986
7254 1 4980 4981 4986
7255 1 4980 4983 4986
7256 2 4980 4981 4982
7257 2 4980 4983 4984
7258 3 4974 4980 4985
7259 3 4986 4980 4985
7260 2 4982 4981 4992
7261 2 4984 4983 4992
7262 3 4980 4986 4992
7263 1 4986 4987 4992
7264 1 4986 4989 4992
7265 2 4986 4987 4988
7266 2 4986 4989 4990
7267 3 4980 4986 4991
7268 3 4992 4986 4991
7269 2 4988 4987 4998
7270 2 4990 4989 4998
7271 3 4986 4992 4998
7272 1 4992 4993 4998
7273 1 4992 4995 4998
7274 2 4992 4993 4994
7275 2 4992 4995 4996
7276 3 4986 4992 4997
7277 3 4998 4992 4997
7278 2 4994 4993 5004
7279 2 4996 4995 5004
7280 3 4992 4998 5004
7281 1 4998 4999 5004
7282 1 4998 5001 5004
7283 2 4998 4999 5000
7284 2 4998 5001 5002
7285 3 4992 4998 5003
7286 3 5004 4998 5003
7287 2 5000 4999 5010
7288 2 5002 5001 5010
7289 3 4998 5004 5010
7290 1 5004 5005 5010
7291 1 5004 5007 5010
7292 2 5004 5005 5006
7293 2 5004 5007 5008
7294 3 4998 5004 5009
7295 3 5010 5004 5009
7296 2 5006 5005 5016
7297 2 5008 5007 5016
7298 3 5004 5010 5016
7299 1 5010 5011 5016
7300 1 5010 5013 5016
7301 2 5010 5011 5012
7302 2 5010 5013 5014
7303 3 5004 5010 5015
7304 3 5016 5010 5015
7305 1 5017 5018 5022
7306 1 5017 5020 5022
7307 2 5017 5018 5019
7308 2 5017 5020 5021
7309 2 5019 5018 5028
7310 2 5021 5020 5028
7311 3 5017 5022 5028
7312 1 5022 5023 5028
7313 1 5022 5025 5028
7314 2 5022 5023 5024
7315 2 5022 5025 5026
7316 3 5017 5022 5027
7317 3 5028 5022 5027
7318 2 5024 5023 5034
7319 2 5026 5025 5034
7320 3 5022 5028 5034
7321 1 5028 5029 5034
7322 1 5028 5031 5034
7323 2 5028 5029 5030
7324 2 5028 5031 5032
7325 3 5022 5028 5033
7326 3 5034 5028 5033
7327 2 5030 5029 5040
7328 2 5032 5031 5040
7329 3 5028 5034 5040
7330 1 5034 5035 5040
7331 1 5034 5037 5040
7332 2 5034 5035 5036
7333 2 5034 5037 5038
7334 3 5028 5034 5039
7335 3 5040 5034 5039
7336 2 5036 5035 5046
7337 2 5038 5037 5046
7338 3 5034 5040 5046
7339 1 5040 5041 5046
7340 1 5040 5043 5046
7341 2 5040 5041 5042
7342 2 5040 5043 5044
7343 3 5034 5040 5045
7344 3 5046 5040 5045
7345 2 5042 5041 5052
7346 2 5044 5043 5052
7347 3 5040 5046 5052
7348 1 5046 5047 5052
7349 1 5046 5049 5052
7350 2 5046 5047 5048
7351 2 5046 5049 5050
7352 3 5040 5046 5051
7353 3 5052 5046 5051
7354 2 5048 5047 5058
7355 2 5050 5049 5058
7356 3 5046 5052 5058
7357 1 5052 5053 5058
7358 1 5052 5055 5058
7359 2 5052 5053 5054
7360 2 5052 5055 5056
7361 3 5046 5052 5057
7362 3 5058 5052 5057
7363 2 5054 5053 5064
7364 2 5056 5055 5064
7365 3 5052 5058 5064
7366 1 5058 5059 5064
7367 1 5058 5061 5064
7368 2 5058 5059 5060
7369 2 5058 5061 5062
7370 3 5052 5058 5063
7371 3 5064 5058 5063
7372 2 5060 5059 5070
7373 2 5062 5061 5070
7374 3 5058 5064 5070
7375 1 5064 5065 5070
7376 1 5064 5067 5070
7377 2 5064 5065 5066
7378 2 5064 5067 5068
7379 3 5058 5064 5069
7380 3 5070 5064 5069
7381 2 5066 5065 5076
7382 2 5068 5067 5076
7383 3 5064 5070 5076
7384 1 5070 5071 5076
7385 1 5070 5073 5076
7386 2 5070 5071 5072
7387 2 5070 5073 5074
7388 3 5064 5070 5075
7389 3 5076 5070 5075
7390 2 5072 5071 5082
7391 2 5074 5073 5082
7392 3 5070 5076 5082
7393 1 5076 5077 5082
7394 1 5076 5079 5082
7395 2 5076 5077 5078
7396 2 5076 5079 5080
7397 3 5070 5076 5081
7398 3 5082 5076 5081
7399 2 5078 5077 5088
7400 2 5080 5079 5088
7401 3 5076 5082 5088
7402 1 5082 5083 5088
7403 1 5082 5085 5088
7404 2 5082 5083 5084
7405 2 5082 5085 5086
7406 3 5076 5082 5087
7407 3 5088 5082 5087
7408 2 5084 5083 5094
7409 2 5086 5085 5094
7410 3 5082 5088 5094
7411 1 5088 5089 5094
7412 1 5088 5091 5094
7413 2 5088 5089 5090
7414 2 5088 5091 5092
7415 3 5082 5088 5093
7416 3 5094 5088 5093
7417 2 5090 5089 5100
7418 2 5092 5091 5100
7419 3 5088 5094 5100
7420 1 5094 5095 5100
7421 1 5094 5097 5100
7422 2 5094 5095 5096
7423 2 5094 5097 5098
7424 3 5088 5094 5099
7425 3 5100 5094 5099
7426 2 5096 5095 5106
7427 2 5098 5097 5106
7428 3 5094 5100 5106
7429 1 5100 5101 5106
7430 1 5100 5103 5106
7431 2 5100 5101 5102
7432 2 5100 5103 5104
7433 3 5094 5100 5105
7434 3 5106 5100 5105
7435 2 5102 5101 5112
7436 2 5104 5103 5112
7437 3 5100 5106 5112
7438 1 5106 5107 5112
7439 1 5106 5109 5112
7440 2 5106 5107 5108
7441 2 5106 5109 5110
7442 3 5100 5106 5111
7443 3 5112 5106 5111
7444 2 5108 5107 5118
7445 2 5110 5109 5118
7446 3 5106 5112 5118
7447 1 5112 5113 5118
7448 1 5112 5115 5118
7449 2 5112 5113 5114
7450 2 5112 5115 5116
7451 3 5106 5112 5117
7452 3 5118 5112 5117
7453 2 5114 5113 5124
7454 2 5116 5115 5124
7455 3 5112 5118 5124
7456 1 5118 5119 5124
7457 1 5118 5121 5124
7458 2 5118 5119 5120
7459 2 5118 5121 5122
7460 3 5112 5118 5123
7461 3 5124 5118 5123
7462 2 5120 5119 5130
7463 2 5122 5121 5130
7464 3 5118 5124 5130
7465 1 5124 5125 5130
7466 1 5124 5127 5130
7467 2 5124 5125 5126
7468 2 5124 5127 5128
7469 3 5118 5124 5129
7470 3 5130 5124 5129
7471 1 5131 5132 5136
7472 1 5131 5134 5136
7473 2 5131 5132 5133
7474 2 5131 5134 5135
7475 2 5133 5132 5142
7476 2 5135 5134 5142
7477 3 5131 5136 5142
7478 1 5136 5137 5142
7479 1 5136 5139 5142
7480 2 5136 5137 5138
7481 2 5136 5139 5140
7482 3 5131 5136 5141
7483 3 5142 5136 5141
7484 2 5138 5137 5148
7485 2 5140 5139 5148
7486 3 5136 5142 5148
7487 1 5142 5143 5148
7488 1 5142 5145 5148
7489 2 5142 5143 5144
7490 2 5142 5145 5146
7491 3 5136 5142 5147
7492 3 5148 5142 5147
7493 2 5144 5143 5154
7494 2 5146 5145 5154
7495 3 5142 5148 5154
7496 1 5148 5149 5154
7497 1 5148 5151 5154
7498 2 5148 5149 5150
7499 2 5148 5151 5152
7500 3 5142 5148 5153
7501 3 5154 5148 5153
7502 2 5150 5149 5160
7503 2 5152 5151 5160
7504 3 5148 5154 5160
7505 1 5154 5155 5160
7506 1 5154 5157 5160
7507 2 5154 5155 5156
7508 2 5154 5157 5158
7509 3 5148 5154 5159
7510 3 5160 5154 5159
7511 2 5156 5155 5166
7512 2 5158 5157 5166
7513 3 5154 5160 5166
7514 1 5160 5161 5166
7515 1 5160 5163 5166
7516 2 5160 5161 5162
7517 2 5160 5163 5164
7518 3 5154 5160 5165
7519 3 5166 5160 5165
7520 2 5162 5161 5172
7521 2 5164 5163 5172
7522 3 5160 5166 5172
7523 1 5166 5167 5172
7524 1 5166 5169 5172
7525 2 5166 5167 5168
7526 2 5166 5169 5170
7527 3 5160 5166 5171
7528 3 5172 5166 5171
7529 2 5168 5167 5178
7530 2 5170 5169 5178
7531 3 5166 5172 5178
7532 1 5172 5173 5178
7533 1 5172 5175 5178
7534 2 5172 5173 5174
7535 2 5172 5175 5176
7536 3 5166 5172 5177
7537 3 5178 5172 5177
7538 2 5174 5173 5184
7539 2 5176 5175 5184
7540 3 5172 5178 5184
7541 1 5178 5179 5184
7542 1 5178 5181 5184
7543 2 5178 5179 5180
7544 2 5178 5181 5182
7545 3 5172 5178 5183
7546 3 5184 5178 5183
7547 2 5180 5179 5190
7548 2 5182 5181 5190
7549 3 5178 5184 5190
7550 1 5184 5185 5190
7551 1 5184 5187 5190
7552 2 5184 5185 5186
7553 2 5184 5187 5188
7554 3 5178 5184 5189
7555 3 5190 5184 5189
7556 2 5186 5185 5196
7557 2 5188 5187 5196
7558 3 5184 5190 5196
7559 1 5190 5191 5196
7560 1 5190 5193 5196
7561 2 5190 5191 5192
7562 2 5190 5193 5194
7563 3 5184 5190 5195
7564 3 5196 5190 5195
7565 2 5192 5191 5202
7566 2 5194 5193 5202
7567 3 5190 5196 5202
7568 1 5196 5197 5202
7569 1 5196 5199 5202
7570 2 5196 5197 5198
7571 2 5196 5199 5200
7572 3 5190 5196 5201
7573 3 5202 5196 5201
7574 2 5198 5197 5208
7575 2 5200 5199 5208
7576 3 5196 5202 5208
7577 1 5202 5203 5208
7578 1 5202 5205 5208
7579 2 5202 5203 5204
7580 2 5202 5205 5206
7581 3 5196 5202 5207
7582 3 5208 5202 5207
7583 2 5204 5203 5214
7584 2 5206 5205 5214
7585 3 5202 5208 5214
7586 1 5208 5209 5214
7587 1 5208 5211 5214
7588 2 5208 5209 5210
7589 2 5208 5211 5212
7590 3 5202 5208 5213
7591 3 5214 5208 5213
7592 2 5210 5209 5220
7593 2 5212 5211 5220
7594 3 5208 5214 5220
7595 1 5214 5215 5220
7596 1 5214 5217 5220
7597 2 5214 5215 5216
7598 2 5214 5217 5218
7599 3 5208 5214 5219
7600 3 5220 5214 5219
7601 2 5216 5215 5226
7602 2 5218 5217 5226
7603 3 5214 5220 5226
7604 1 5220 5221 5226
7605 1 5220 5223 5226
7606 2 5220 5221 5222
7607 2 5220 5223 5224
7608 3 5214 5220 5225
7609 3 5226 5220 5225
7610 2 5222 5221 5232
7611 2 5224 5223 5232
7612 3 5220 5226 5232
7613 1 5226 5227 5232
7614 1 5226 5229 5232
7615 2 5226 5227 5228
7616 2 5226 5229 5230
7617 3 5220 5226 5231
7618 3 5232 5226 5231
7619 2 5228 5227 5238
7620 2 5230 5229 5238
7621 3 5226 5232 5238
7622 1 5232 5233 5238
7623 1 5232 5235 5238
7624 2 5232 5233 5234
7625 2 5232 5235 5236
7626 3 5226 5232 5237
7627 3 5238 5232 5237
7628 2 5234 5233 5244
7629 2 5236 5235 5244
7630 3 5232 5238 5244
7631 1 5238 5239 5244
7632 1 5238 5241 5244
7633 2 5238 5239 5240
7634 2 5238 5241 5242
7635 3 5232 5238 5243
7636 3 5244 5238 5243
7637 1 5245 5246 5250
7638 1 5245 5248 5250
7639 2 5245 5246 5247
7640 2 5245 5248 5249
7641 2 5247 5246 5256
7642 2 5249 5248 5256
7643 3 5245 5250 5256
7644 1 5250 5251 5256
7645 1 5250 5253 5256
7646 2 5250 5251 5252
7647 2 5250 5253 5254
7648 3 5245 5250 5255
7649 3 5256 5250 5255
7650 2 5252 5251 5262
7651 2 5254 5253 5262
7652 3 5250 5256 5262
7653 1 5256 5257 5262
7654 1 5256 5259 5262
7655 2 5256 5257 5258
7656 2 5256 5259 5260
7657 3 5250 5256 5261
7658 3 5262 5256 5261
7659 2 5258 5257 5268
7660 2 5260 5259 5268
7661 3 5256 5262 5268
7662 1 5262 5263 5268
7663 1 5262 5265 5268
7664 2 5262 5263 5264
7665 2 5262 5265 5266
7666 3 5256 5262 5267
7667 3 5268 5262 5267
7668 2 5264 5263 5274
7669 2 5266 5265 5274
7670 3 5262 5268 5274
7671 1 5268 5269 5274
7672 1 5268 5271 5274
7673 2 5268 5269 5270
7674 2 5268 5271 5272
7675 3 5262 5268 5273
7676 3 5274 5268 5273
7677 2 5270 5269 5280
7678 2 5272 5271 5280
7679 3 5268 5274 5280
7680 1 5274 5275 5280
7681 1 5274 5277 5280
7682 2 5274 5275 5276
7683 2 5274 5277 5278
7684 3 5268 5274 5279
7685 3 5280 5274 5279
7686 2 5276 5275 5286
7687 2 5278 5277 5286
7688 3 5274 5280 5286
7689 1 5280 5281 5286
7690 1 5280 5283 5286
7691 2 5280 5281 5282
7692 2 5280 5283 5284
7693 3 5274 5280 5285
7694 3 5286 5280 5285
7695 2 5282 5281 5292
7696 2 5284 5283 5292
7697 3 5280 5286 5292
7698 1 5286 5287 5292
7699 1 5286 5289 5292
7700 2 5286 5287 5288
7701 2 5286 5289 5290
7702 3 5280 5286 5291
7703 3 5292 5286 5291
7704 2 5288 5287 5298
7705 2 5290 5289 5298
7706 3 5286 5292 5298
7707 1 5292 5293 5298
7708 1 5292 5295 5298
7709 2 5292 5293 5294
7710 2 5292 5295 5296
7711 3 5286 5292 5297
7712 3 5298 5292 5297
7713 2 5294 5293 5304
7714 2 5296 5295 5304
7715 3 5292 5298 5304
7716 1 5298 5299 5304
7717 1 5298 5301 5304
7718 2 5298 5299 5300
7719 2 5298 5301 5302
7720 3 5292 5298 5303
7721 3 5304 5298 5303
7722 2 5300 5299 5310
7723 2 5302 5301 5310
7724 3 5298 5304 5310
7725 1 5304 5305 5310
7726 1 5304 5307 5310
7727 2 5304 5305 5306
7728 2 5304 5307 5308
7729 3 5298 5304 5309
7730 3 5310 5304 5309
7731 2 5306 5305 5316
7732 2 5308 5307 5316
7733 3 5304 5310 5316
7734 1 5310 5311 5316
7735 1 5310 5313 5316
7736 2 5310 5311 5312
7737 2 5310 5313 5314
7738 3 5304 5310 5315
7739 3 5316 5310 5315
7740 2 5312 5311 5322
7741 2 5314 5313 5322
7742 3 5310 5316 5322
7743 1 5316 5317 5322
7744 1 5316 5319 5322
7745 2 5316 5317 5318
7746 2 5316 5319 5320
7747 3 5310 5316 5321
7748 3 5322 5316 5321
7749 2 5318 5317 5328
7750 2 5320 5319 5328
7751 3 5316 5322 5328
7752 1 5322 5323 5328
7753 1 5322 5325 5328
7754 2 5322 5323 5324
7755 2 5322 5325 5326
7756 3 5316 5322 5327
7757 3 5328 5322 5327
7758 2 5324 5323 5334
7759 2 5326 5325 5334
7760 3 5322 5328 5334
7761 1 5328 5329 5334
7762 1 5328 5331 5334
7763 2 5328 5329 5330
7764 2 5328 5331 5332
7765 3 5322 5328 5333
7766 3 5334 5328 5333
7767 2 5330 5329 5340
7768 2 5332 5331 5340
7769 3 5328 5334 5340
7770 1 5334 5335 5340
7771 1 5334 5337 5340
7772 2 5334 5335 5336
7773 2 5334 5337 5338
7774 3 5328 5334 5339
7775 3 5340 5334 5339
7776 2 5336 5335 5346
7777 2 5338 5337 5346
7778 3 5334 5340 5346
7779 1 5340 5341 5346
7780 1 5340 5343 5346
7781 2 5340 5341 5342
7782 2 5340 5343 5344
7783 3 5334 5340 5345
7784 3 5346 5340 5345
7785 2 5342 5341 5352
7786 2 5344 5343 5352
7787 3 5340 5346 5352
7788 1 5346 5347 5352
7789 1 5346 5349 5352
7790 2 5346 5347 5348
7791 2 5346 5349 5350
7792 3 5340 5346 5351
7793 3 5352 5346 5351
7794 2 5348 5347 5358
7795 2 5350 5349 5358
7796 3 5346 5352 5358
7797 1 5352 5353 5358
7798 1 5352 5355 5358
7799 2 5352 5353 5354
7800 2 5352 5355 5356
7801 3 5346 5352 5357
7802 3 5358 5352 5357
7803 1 5359 5360 5364
7804 1 5359 5362 5364
7805 2 5359 5360 5361
7806 2 5359 5362 5363
7807 2 5361 5360 5370
7808 2 5363 5362 5370
7809 3 5359 5364 5370
7810 1 5364 5365 5370
7811 1 5364 5367 5370
7812 2 5364 5365 5366
7813 2 5364 5367 5368
7814 3 5359 5364 5369
7815 3 5370 5364 5369
7816 2 5366 5365 5376
7817 2 5368 5367 5376
7818 3 5364 5370 5376
7819 1 5370 5371 5376
7820 1 5370 5373 5376
7821 2 5370 5371 5372
7822 2 5370 5373 5374
7823 3 5364 5370 5375
7824 3 5376 5370 5375
7825 2 5372 5371 5382
7826 2 5374 5373 5382
7827 3 5370 5376 5382
7828 1 5376 5377 5382
7829 1 5376 5379 5382
7830 2 5376 5377 5378
7831 2 5376 5379 5380
7832 3 5370 5376 5381
7833 3 5382 5376 5381
7834 2 5378 5377 5388
7835 2 5380 5379 5388
7836 3 5376 5382 5388
7837 1 5382 5383 5388
7838 1 5382 5385 5388
7839 2 5382 5383 5384
7840 2 5382 5385 5386
7841 3 5376 5382 5387
7842 3 5388 5382 5387
7843 2 5384 5383 5394
7844 2 5386 5385 5394
7845 3 5382 5388 5394
7846 1 5388 5389 5394
7847 1 5388 5391 5394
7848 2 5388 5389 5390
7849 2 5388 5391 5392
7850 3 5382 5388 5393
7851 3 5394 5388 5393
7852 2 5390 5389 5400
7853 2 5392 5391 5400
7854 3 5388 5394 5400
7855 1 5394 5395 5400
7856 1 5394 5397 5400
7857 2 5394 5395 5396
7858 2 5394 5397 5398
7859 3 5388 5394 5399
7860 3 5400 5394 5399
7861 2 5396 5395 5406
7862 2 5398 5397 5406
7863 3 5394 5400 5406
7864 1 5400 5401 5406
7865 1 5400 5403 5406
7866 2 5400 5401 5402
7867 2 5400 5403 5404
7868 3 5394 5400 5405
7869 3 5406 5400 5405
7870 2 5402 5401 5412
7871 2 5404 5403 5412
7872 3 5400 5406 5412
7873 1 5406 5407 5412
7874 1 5406 5409 5412
7875 2 5406 5407 5408
7876 2 5406 5409 5410
7877 3 5400 5406 5411
7878 3 5412 5406 5411
7879 2 5408 5407 5418
7880 2 5410 5409 5418
7881 3 5406 5412 5418
7882 1 5412 5413 5418
7883 1 5412 5415 5418
7884 2 5412 5413 5414
7885 2 5412 5415 5416
7886 3 5406 5412 5417
7887 3 5418 5412 5417
7888 2 5414 5413 5424
7889 2 5416 5415 5424
7890 3 5412 5418 5424
7891 1 5418 5419 5424
7892 1 5418 5421 5424
7893 2 5418 5419 5420
7894 2 5418 5421 5422
7895 3 5412 5418 5423
7896 3 5424 5418 5423
7897 2 5420 5419 5430
7898 2 5422 5421 5430
7899 3 5418 5424 5430
7900 1 5424 5425 5430
7901 1 5424 5427 5430
7902 2 5424 5425 5426
7903 2 5424 5427 5428
7904 3 5418 5424 5429
7905 3 5430 5424 5429
7906 2 5426 5425 5436
7907 2 5428 5427 5436
7908 3 5424 5430 5436
7909 1 5430 5431 5436
7910 1 5430 5433 5436
7911 2 5430 5431 5432
7912 2 5430 5433 5434
7913 3 5424 5430 5435
7914 3 5436 5430 5435
7915 2 5432 5431 5442
7916 2 5434 5433 5442
7917 3 5430 5436 5442
7918 1 5436 5437 5442
7919 1 5436 5439 5442
7920 2 5436 5437 5438
7921 2 5436 5439 5440
7922 3 5430 5436 5441
7923 3 5442 5436 5441
7924 2 5438 5437 5448
7925 2 5440 5439 5448
7926 3 5436 5442 5448
7927 1 5442 5443 5448
7928 1 5442 5445 5448
7929 2 5442 5443 5444
7930 2 5442 5445 5446
7931 3 5436 5442 5447
7932 3 5448 5442 5447
7933 2 5444 5443 5454
7934 2 5446 5445 5454
7935 3 5442 5448 5454
7936 1 5448 5449 5454
7937 1 5448 5451 5454
7938 2 5448 5449 5450
7939 2 5448 5451 5452
7940 3 5442 5448 5453
7941 3 5454 5448 5453
7942 2 5450 5449 5460
7943 2 5452 5451 5460
7944 3 5448 5454 5460
7945 1 5454 5455 5460
7946 1 5454 5457 5460
7947 2 5454 5455 5456
7948 2 5454 5457 5458
7949 3 5448 5454 5459
7950 3 5460 5454 5459
7951 2 5456 5455 5466
7952 2 5458 5457 5466
7953 3 5454 5460 5466
7954 1 5460 5461 5466
7955 1 5460 5463 5466
7956 2 5460 5461 5462
7957 2 5460 5463 5464
7958 3 5454 5460 5465
7959 3 5466 5460 5465
7960 2 5462 5461 5472
7961 2 5464 5463 5472
7962 3 5460 5466 5472
7963 1 5466 5467 5472
7964 1 5466 5469 5472
7965 2 5466 5467 5468
7966 2 5466 5469 5470
7967 3 5460 5466 5471
7968 3 5472 5466 5471
7969 1 5473 5474 5478
7970 1 5473 5476 5478
7971 2 5473 5474 5475
7972 2 5473 5476 5477
7973 2 5475 5474 5484
7974 2 5477 5476 5484
7975 3 5473 5478 5484
7976 1 5478 5479 5484
7977 1 5478 5481 5484
7978 2 5478 5479 5480
7979 2 5478 5481 5482
7980 3 5473 5478 5483
7981 3 5484 5478 5483
7982 2 5480 5479 5490
7983 2 5482 5481 5490
7984 3 5478 5484 5490
7985 1 5484 5485 5490
7986 1 5484 5487 5490
7987 2 5484 5485 5486
7988 2 5484 5487 5488
7989 3 5478 5484 5489
7990 3 5490 5484 5489
7991 2 5486 5485 5496
7992 2 5488 5487 5496
7993 3 5484 5490 5496
7994 1 5490 5491 5496
7995 1 5490 5493 5496
7996 2 5490 5491 5492
7997 2 5490 5493 5494
7998 3 5484 5490 5495
7999 3 5496 5490 5495
8000 2 5492 5491 5502
8001 2 5494 5493 5502
8002 3 5490 5496 5502
8003 1 5496 5497 5502
8004 1 5496 5499 5502
8005 2 5496 5497 5498
8006 2 5496 5499 5500
8007 3 5490 5496 5501
8008 3 5502 5496 5501
8009 2 5498 5497 5508
8010 2 5500 5499 5508
8011 3 5496 5502 5508
8012 1 5502 5503 5508
8013 1 5502 5505 5508
8014 2 5502 5503 5504
8015 2 5502 5505 5506
8016 3 5496 5502 5507
8017 3 5508 5502 5507
8018 2 5504 5503 5514
8019 2 5506 5505 5514
8020 3 5502 5508 5514
8021 1 5508 5509 5514
8022 1 5508 5511 5514
8023 2 5508 5509 5510
8024 2 5508 5511 5512
8025 3 5502 5508 5513
8026 3 5514 5508 5513
8027 2 5510 5509 5520
8028 2 5512 5511 5520
8029 3 5508 5514 5520
8030 1 5514 5515 5520
8031 1 5514 5517 5520
8032 2 5514 5515 5516
8033 2 5514 5517 5518
8034 3 5508 5514 5519
8035 3 5520 5514 5519
8036 2 5516 5515 5526
8037 2 5518 5517 5526
8038 3 5514 5520 5526
8039 1 5520 5521 5526
8040 1 5520 5523 5526
8041 2 5520 5521 5522
8042 2 5520 5523 5524
8043 3 5514 5520 5525
8044 3 5526 5520 5525
8045 2 5522 5521 5532
8046 2 5524 5523 5532
8047 3 5520 5526 5532
8048 1 5526 5527 5532
8049 1 5526 5529 5532
8050 2 5526 5527 5528
8051 2 5526 5529 5530
8052 3 5520 5526 5531
8053 3 5532 5526 5531
8054 2 5528 5527 5538
8055 2 5530 5529 5538
8056 3 5526 5532 5538
8057 1 5532 5533 5538
8058 1 5532 5535 5538
8059 2 5532 5533 5534
8060 2 5532 5535 5536
8061 3 5526 5532 5537
8062 3 5538 5532 5537
8063 2 5534 5533 5544
8064 2 5536 5535 5544
8065 3 5532 5538 5544
8066 1 5538 5539 5544
8067 1 5538 5541 5544
8068 2 5538 5539 5540
8069 2 5538 5541 5542
8070 3 5532 5538 5543
8071 3 5544 5538 5543
8072 2 5540 5539 5550
8073 2 5542 5541 5550
8074 3 5538 5544 5550
8075 1 5544 5545 5550
8076 1 5544 5547 5550
8077 2 5544 5545 5546
8078 2 5544 5547 5548
8079 3 5538 5544 5549
8080 3 5550 5544 5549
8081 2 5546 5545 5556
8082 2 5548 5547 5556
8083 3 5544 5550 5556
8084 1 5550 5551 5556
8085 1 5550 5553 5556
8086 2 5550 5551 5552
8087 2 5550 5553 5554
8088 3 5544 5550 5555
8089 3 5556 5550 5555
8090 2 5552 5551 5562
8091 2 5554 5553 5562
8092 3 5550 5556 5562
8093 1 5556 5557 5562
8094 1 5556 5559 5562
8095 2 5556 5557 5558
8096 2 5556 5559 5560
8097 3 5550 5556 5561
8098 3 5562 5556 5561
8099 2 5558 5557 5568
8100 2 5560 5559 5568
8101 3 5556 5562 5568
8102 1 5562 5563 5568
8103 1 5562 5565 5568
8104 2 5562 5563 5564
8105 2 5562 5565 5566
8106 3 5556 5562 5567
8107 3 5568 5562 5567
8108 2 5564 5563 5574
8109 2 5566 5565 5574
8110 3 5562 5568 5574
8111 1 5568 5569 5574
8112 1 5568 5571 5574
8113 2 5568 5569 5570
8114 2 5568 5571 5572
8115 3 5562 5568 5573
8116 3 5574 5568 5573
8117 2 5570 5569 5580
8118 2 5572 5571 5580
8119 3 5568 5574 5580
8120 1 5574 5575 5580
8121 1 5574 5577 5580
8122 2 5574 5575 5576
8123 2 5574 5577 5578
8124 3 5568 5574 5579
8125 3 5580 5574 5579
8126 2 5576 5575 5586
8127 2 5578 5577 5586
8128 3 5574 5580 5586
8129 1 5580 5581 5586
8130 1 5580 5583 5586
8131 2 5580 5581 5582
8132 2 5580 5583 5584
8133 3 5574 5580 5585
8134 3 5586 5580 5585

 Dihedrals

1 1 3 2 4 5
2 1 8 7 9 10
3 1 14 13 15 16
4 1 20 19 21 22
5 1 26 25 27 28
6 1 32 31 33 34
7 1 38 37 39 40
8 1 44 43 45 46
9 1 50 49 51 52
10 1 56 55 57 58
11 1 62 61 63 64
12 1 68 67 69 70
13 1 74 73 75 76
14 1 80 79 81 82
15 1 86 85 87 88
16 1 92 91 93 94
17 1 98 97 99 100
18 1 104 103 105 106
19 1 110 109 111 112
20 1 117 116 118 119
21 1 122 121 123 124
22 1 128 127 129 130
23 1 134 133 135 136
24 1 140 139 141 142
25 1 146 145 147 148
26 1 152 151 153 154
27 1 158 157 159 160
28 1 164 163 165 166
29 1 170 169 171 172
30 1 176 175 177 178
31 1 182 181 183 184
32 1 188 187 189 190
33 1 194 193 195 196
34 1 200 199 201 202
35 1 206 205 207 208
36 1 212 211 213 214
37 1 218 217 219 220
38 1 224 223 225 226
39 1 231 230 232 233
40 1 236 235 237 238
41 1 242 241 243 244
42 1 248 247 249 250
43 1 254 253 255 256
44 1 260 259 261 262
45 1 266 265 267 268
46 1 272 271 273 274
47 1 278 277 279 280
48 1 284 283 285 286
49 1 290 289 291 292
50 1 296 295 297 298
51 1 302 301 303 304
52 1 308 307 309 310
53 1 314 313 315 316
54 1 320 319 321 322
55 1 326 325 327 328
56 1 332 331 333 334
57 1 338 337 339 340
58 1 345 344 346 347
59 1 350 349 351 352
60 1 356 355 357 358
61 1 362 361 363 364
62 1 368 367 369 370
63 1 374 373 375 376
64 1 380 379 381 382
65 1 386 385 387 388
66 1 392 391 393 394
67 1 398 397 399 400
68 1 404 403 405 406
69 1 410 409 411 412
70 1 416 415 417 418
71 1 422 421 423 424
72 1 428 427 429 430
73 1 434 433 435 436
74 1 440 439 441 442
75 1 446 445 447 448
76 1 452 451 453 454
77 1 459 458 460 461
78 1 464 463 465 466
79 1 470 469 471 472
80 1 476 475 477 478
81 1 482 481 483 484
82 1 488 487 489 490
83 1 494 493 495 496
84 1 500 499 501 502
85 1 506 505 507 508
86 1 512 511 513 514
87 1 518 517 519 520
88 1 524 523 525 526
89 1 530 529 531 532
90 1 536 535 537 538
91 1 542 541 543 544
92 1 548 547 549 550
93 1 554 553 555 556
94 1 560 559 561 562
95 1 566 565 567 568
96 1 573 572 574 575
97 1 578 577 579 580
98 1 584 583 585 586
99 1 590 589 591 592
100 1 596 595 597 598
101 1 602 601 603 604
102 1 608 607 609 610
103 1 614 613 615 616
104 1 620 619 621 622
105 1 626 625 627 628
106 1 632 631 633 634
107 1 638 637 639 640
108 1 644 643 645 646
109 1 650 649 651 652
110 1 656 655 657 658
111 1 662 661 663 664
112 1 668 667 669 670
113 1 674 673 675 676
114 1 680 679 681 682
115 1 687 686 688 689
116 1 692 691 693 694
117 1 698 697 699 700
118 1 704 703 705 706
119 1 710 709 711 712
120 1 716 715 717 718
121 1 722 721 723 724
122 1 728 727 729 730
123 1 734 733 735 736
124 1 740 739 741 742
125 1 746 745 747 748
126 1 752 751 753 754
127 1 758 757 759 760
128 1 764 763 765 766
129 1 770 769 771 772
130 1 776 775 777 778
131 1 782 781 783 784
132 1 788 787 789 790
133 1 794 793 795 796
134 1 801 800 802 803
135 1 806 805 807 808
136 1 812 811 813 814
137 1 818 817 819 820
138 1 824 823 825 826
139 1 830 829 831 832
140 1 836 835 837 838
141 1 842 841 843 844
142 1 848 847 849 850
143 1 854 853 855 856
144 1 860 859 861 862
145 1 866 865 867 868
146 1 872 871 873 874
147 1 878 877 879 880
148 1 884 883 885 886
149 1 890 889 891 892
150 1 896 895 897 898
151 1 902 901 903 904
152 1 908 907 909 910
153 1 915 914 916 917
154 1 920 919 921 922
155 1 926 925 927 928
156 1 932 931 933 934
157 1 938 937 939 940
158 1 944 943 945 946
159 1 950 949 951 952
160 1 956 955 957 958
161 1 962 961 963 964
162 1 968 967 969 970
163 1 974 973 975 976
164 1 980 979 981 982
165 1 986 985 987 988
166 1 992 991 993 994
167 1 998 997 999 1000
168 1 1004 1003 1005 1006
169 1 1010 1009 1011 1012
170 1 1016 1015 1017 1018
171 1 1022 1021 1023 1024
172 1 1029 1028 1030 1031
173 1 1034 1033 1035 1036
174 1 1040 1039 1041 1042
175 1 1046 1045 1047 1048
176 1 1052 1051 1053 1054
177 1 1058 1057 1059 1060
178 1 1064 1063 1065 1066
179 1 1070 1069 1071 1072
180 1 1076 1075 1077 1078
181 1 1082 1081 1083 1084
182 1 1088 1087 1089 1090
183 1 1094 1093 1095 1096
184 1 1100 1099 1101 1102
185 1 1106 1105 1107 1108
186 1 1112 1111 1113 1114
187 1 1118 1117 1119 1120
188 1 1124 1123 1125 1126
189 1 1130 1129 1131 1132
190 1 1136 1135 1137 1138
191 1 1143 1142 1144 1145
192 1 1148 1147 1149 1150
193 1 1154 1153 1155 1156
194 1 1160 1159 1161 1162
195 1 1166 1165 1167 1168
196 1 1172 1171 1173 1174
197 1 1178 1177 1179 1180
198 1 1184 1183 1185 1186
199 1 1190 1189 1191 1192
200 1 1196 1195 1197 1198
201 1 1202 1201 1203 1204
202 1 1208 1207 1209 1210
203 1 1214 1213 1215 1216
204 1 1220 1219 1221 1222
205 1 1226 1225 1227 1228
206 1 1232 1231 1233 1234
207 1 1238 1237 1239 1240
208 1 1244 1243 1245 1246
209 1 1250 1249 1251 1252
210 1 1257 1256 1258 1259
211 1 1262 1261 1263 1264
212 1 1268 1267 1269 1270
213 1 1274 1273 1275 1276
214 1 1280 1279 1281 1282
215 1 1286 1285 1287 1288
216 1 1292 1291 1293 1294
217 1 1298 1297 1299 1300
218 1 1304 1303 1305 1306
219 1 1310 1309 1311 1312
220 1 1316 1315 1317 1318
221 1 1322 1321 1323 1324
222 1 1328 1327 1329 1330
223 1 1334 1333 1335 1336
224 1 1340 1339 1341 1342
225 1 1346 1345 1347 1348
226 1 1352 1351 1353 1354
227 1 1358 1357 1359 1360
228 1 1364 1363 1365 1366
229 1 1371 1370 1372 1373
230 1 1376 1375 1377 1378
231 1 1382 1381 1383 1384
232 1 1388 1387 1389 1390
233 1 1394 1393 1395 1396
234 1 1400 1399 1401 1402
235 1 1406 1405 1407 1408
236 1 1412 1411 1413 1414
237 1 1418 1417 1419 1420
238 1 1424 1423 1425 1426
239 1 1430 1429 1431 1432
240 1 1436 1435 1437 1438
241 1 1442 1441 1443 1444
242 1 1448 1447 1449 1450
243 1 1454 1453 1455 1456
244 1 1460 1459 1461 1462
245 1 1466 1465 1467 1468
246 1 1472 1471 1473 1474
247 1 1478 1477 1479 1480
248 1 1485 1484 1486 1487
249 1 1490 1489 1491 1492
250 1 1496 1495 1497 1498
251 1 1502 1501 1503 1504
252 1 1508 1507 1509 1510
253 1 1514 1513 1515 1516
254 1 1520 1519 1521 1522
255 1 1526 1525 1527 1528
256 1 1532 1531 1533 1534
257 1 1538 1537 1539 1540
258 1 1544 1543 1545 1546
259 1 1550 1549 1551 1552
260 1 1556 1555 1557 1558
261 1 1562 1561 1563 1564
262 1 1568 1567 1569 1570
263 1 1574 1573 1575 1576
264 1 1580 1579 1581 1582
265 1 1586 1585 1587 1588
266 1 1592 1591 1593 1594
267 1 1599 1598 1600 1601
268 1 1604 1603 1605 1606
269 1 1610 1609 1611 1612
270 1 1616 1615 1617 1618
271 1 1622 1621 1623 1624
272 1 1628 1627 1629 1630
273 1 1634 1633 1635 1636
274 1 1640 1639 1641 1642
275 1 1646 1645 1647 1648
276 1 1652 1651 1653 1654
277 1 1658 1657 1659 1660
278 1 1664 1663 1665 1666
279 1 1670 1669 1671 1672
280 1 1676 1675 1677 1678
281 1 1682 1681 1683 1684
282 1 1688 1687 1689 1690
283 1 1694 1693 1695 1696
284 1 1700 1699 1701 1702
285 1 1706 1705 1707 1708
286 1 1713 1712 1714 1715
287 1 1718 1717 1719 1720
288 1 1724 1723 1725 1726
289 1 1730 1729 1731 1732
290 1 1736 1735 1737 1738
291 1 1742 1741 1743 1744
292 1 1748 1747 1749 1750
293 1 1754 1753 1755 1756
294 1 1760 1759 1761 1762
295 1 1766 1765 1767 1768
296 1 1772 1771 1773 1774
297 1 1778 1777 1779 1780
298 1 1784 1783 1785 1786
299 1 1790 1789 1791 1792
300 1 1796 1795 1797 1798
301 1 1802 1801 1803 1804
302 1 1808 1807 1809 1810
303 1 1814 1813 1815 1816
304 1 1820 1819 1821 1822
305 1 1827 1826 1828 1829
306 1 1832 1831 1833 1834
307 1 1838 1837 1839 1840
308 1 1844 1843 1845 1846
309 1 1850 1849 1851 1852
310 1 1856 1855 1857 1858
311 1 1862 1861 1863 1864
312 1 1868 1867 1869 1870
313 1 1874 1873 1875 1876
314 1 1880 1879 1881 1882
315 1 1886 1885 1887 1888
316 1 1892 1891 1893 1894
317 1 1898 1897 1899 1900
318 1 1904 1903 1905 1906
319 1 1910 1909 1911 1912
320 1 1916 1915 1917 1918
321 1 1922 1921 1923 1924
322 1 1928 1927 1929 1930
323 1 1934 1933 1935 1936
324 1 1941 1940 1942 1943
325 1 1946 1945 1947 1948
326 1 1952 1951 1953 1954
327 1 1958 1957 1959 1960
328 1 1964 1963 1965 1966
329 1 1970 1969 1971 1972
330 1 1976 1975 1977 1978
331 1 1982 1981 1983 1984
332 1 1988 1987 1989 1990
333 1 1994 1993 1995 1996
334 1 2000 1999 2001 2002
335 1 2006 2005 2007 2008
336 1 2012 2011 2013 2014
337 1 2018 2017 2019 2020
338 1 2024 2023 2025 2026
339 1 2030 2029 2031 2032
340 1 2036 2035 2037 2038
341 1 2042 2041 2043 2044
342 1 2048 2047 2049 2050
343 1 2055 2054 2056 2057
344 1 2060 2059 2061 2062
345 1 2066 2065 2067 2068
346 1 2072 2071 2073 2074
347 1 2078 2077 2079 2080
348 1 2084 2083 2085 2086
349 1 2090 2089 2091 2092
350 1 2096 2095 2097 2098
351 1 2102 2101 2103 2104
352 1 2108 2107 2109 2110
353 1 2114 2113 2115 2116
354 1 2120 2119 2121 2122
355 1 2126 2125 2127 2128
356 1 2132 2131 2133 2134
357 1 2138 2137 2139 2140
358 1 2144 2143 2145 2146
359 1 2150 2149 2151 2152
360 1 2156 2155 2157 2158
361 1 2162 2161 2163 2164
362 1 2169 2168 2170 2171
363 1 2174 2173 2175 2176
364 1 2180 2179 2181 2182
365 1 2186 2185 2187 2188
366 1 2192 2191 2193 2194
367 1 2198 2197 2199 2200
368 1 2204 2203 2205 2206
369 1 2210 2209 2211 2212
370 1 2216 2215 2217 2218
371 1 2222 2221 2223 2224
372 1 2228 2227 2229 2230
373 1 2234 2233 2235 2236
374 1 2240 2239 2241 2242
375 1 2246 2245 2247 2248
376 1 2252 2251 2253 2254
377 1 2258 2257 2259 2260
378 1 2264 2263 2265 2266
379 1 2270 2269 2271 2272
380 1 2276 2275 2277 2278
381 1 2283 2282 2284 2285
382 1 2288 2287 2289 2290
383 1 2294 2293 2295 2296
384 1 2300 2299 2301 2302
385 1 2306 2305 2307 2308
386 1 2312 2311 2313 2314
387 1 2318 2317 2319 2320
388 1 2324 2323 2325 2326
389 1 2330 2329 2331 2332
390 1 2336 2335 2337 2338
391 1 2342 2341 2343 2344
392 1 2348 2347 2349 2350
393 1 2354 2353 2355 2356
394 1 2360 2359 2361 2362
395 1 2366 2365 2367 2368
396 1 2372 2371 2373 2374
397 1 2378 2377 2379 2380
398 1 2384 2383 2385 2386
399 1 2390 2389 2391 2392
400 1 2397 2396 2398 2399
401 1 2402 2401 2403 2404
402 1 2408 2407 2409 2410
403 1 2414 2413 2415 2416
404 1 2420 2419 2421 2422
405 1 2426 2425 2427 2428
406 1 2432 2431 2433 2434
407 1 2438 2437 2439 2440
408 1 2444 2443 2445 2446
409 1 2450 2449 2451 2452
410 1 2456 2455 2457 2458
411 1 2462 2461 2463 2464
412 1 2468 2467 2469 2470
413 1 2474 2473 2475 2476
414 1 2480 2479 2481 2482
415 1 2486 2485 2487 2488
416 1 2492 2491 2493 2494
417 1 2498 2497 2499 2500
418 1 2504 2503 2505 2506
419 1 2511 2510 2512 2513
420 1 2516 2515 2517 2518
421 1 2522 2521 2523 2524
422 1 2528 2527 2529 2530
423 1 2534 2533 2535 2536
424 1 2540 2539 2541 2542
425 1 2546 2545 2547 2548
426 1 2552 2551 2553 2554
427 1 2558 2557 2559 2560
428 1 2564 2563 2565 2566
429 1 2570 2569 2571 2572
430 1 2576 2575 2577 2578
431 1 2582 2581 2583 2584
432 1 2588 2587 2589 2590
433 1 2594 2593 2595 2596
434 1 2600 2599 2601 2602
435 1 2606 2605 2607 2608
436 1 2612 2611 2613 2614
437 1 2618 2617 2619 2620
438 1 2625 2624 2626 2627
439 1 2630 2629 2631 2632
440 1 2636 2635 2637 2638
441 1 2642 2641 2643 2644
442 1 2648 2647 2649 2650
443 1 2654 2653 2655 2656
444 1 2660 2659 2661 2662
445 1 2666 2665 2667 2668
446 1 2672 2671 2673 2674
447 1 2678 2677 2679 2680
448 1 2684 2683 2685 2686
449 1 2690 2689 2691 2692
450 1 2696 2695 2697 2698
451 1 2702 2701 2703 2704
452 1 2708 2707 2709 2710
453 1 2714 2713 2715 2716
454 1 2720 2719 2721 2722
455 1 2726 2725 2727 2728
456 1 2732 2731 2733 2734
457 1 2739 2738 2740 2741
458 1 2744 2743 2745 2746
459 1 2750 2749 2751 2752
460 1 2756 2755 2757 2758
461 1 2762 2761 2763 2764
462 1 2768 2767 2769 2770
463 1 2774 2773 2775 2776
464 1 2780 2779 2781 2782
465 1 2786 2785 2787 2788
466 1 2792 2791 2793 2794
467 1 2798 2797 2799 2800
468 1 2804 2803 2805 2806
469 1 2810 2809 2811 2812
470 1 2816 2815 2817 2818
471 1 2822 2821 2823 2824
472 1 2828 2827 2829 2830
473 1 2834 2833 2835 2836
474 1 2840 2839 2841 2842
475 1 2846 2845 2847 2848
476 1 2853 2852 2854 2855
477 1 2858 2857 2859 2860
478 1 2864 2863 2865 2866
479 1 2870 2869 2871 2872
480 1 2876 2875 2877 2878
481 1 2882 2881 2883 2884
482 1 2888 2887 2889 2890
483 1 2894 2893 2895 2896
484 1 2900 2899 2901 2902
485 1 2906 2905 2907 2908
486 1 2912 2911 2913 2914
487 1 2918 2917 2919 2920
488 1 2924 2923 2925 2926
489 1 2930 2929 2931 2932
490 1 2936 2935 2937 2938
491 1 2942 2941 2943 2944
492 1 2948 2947 2949 2950
493 1 2954 2953 2955 2956
494 1 2960 2959 2961 2962
495 1 2967 2966 2968 2969
496 1 2972 2971 2973 2974
497 1 2978 2977 2979 2980
498 1 2984 2983 2985 2986
499 1 2990 2989 2991 2992
500 1 2996 2995 2997 2998
501 1 3002 3001 3003 3004
502 1 3008 3007 3009 3010
503 1 3014 3013 3015 3016
504 1 3020 3019 3021 3022
505 1 3026 3025 3027 3028
506 1 3032 3031 3033 3034
507 1 3038 3037 3039 3040
508 1 3044 3043 3045 3046
509 1 3050 3049 3051 3052
510 1 3056 3055 3057 3058
511 1 3062 3061 3063 3064
512 1 3068 3067 3069 3070
513 1 3074 3073 3075 3076
514 1 3081 3080 3082 3083
515 1 3086 3085 3087 3088
516 1 3092 3091 3093 3094
517 1 3098 3097 3099 3100
518 1 3104 3103 3105 3106
519 1 3110 3109 3111 3112
520 1 3116 3115 3117 3118
521 1 3122 3121 3123 3124
522 1 3128 3127 3129 3130
523 1 3134 3133 3135 3136
524 1 3140 3139 3141 3142
525 1 3146 3145 3147 3148
526 1 3152 3151 3153 3154
527 1 3158 3157 3159 3160
528 1 3164 3163 3165 3166
529 1 3170 3169 3171 3172
530 1 3176 3175 3177 3178
531 1 3182 3181 3183 3184
532 1 3188 3187 3189 3190
533 1 3195 3194 3196 3197
534 1 3200 3199 3201 3202
535 1 3206 3205 3207 3208
536 1 3212 3211 3213 3214
537 1 3218 3217 3219 3220
538 1 3224 3223 3225 3226
539 1 3230 3229 3231 3232
540 1 3236 3235 3237 3238
541 1 3242 3241 3243 3244
542 1 3248 3247 3249 3250
543 1 3254 3253 3255 3256
544 1 3260 3259 3261 3262
545 1 3266 3265 3267 3268
546 1 3272 3271 3273 3274
547 1 3278 3277 3279 3280
548 1 3284 3283 3285 3286
549 1 3290 3289 3291 3292
550 1 3296 3295 3297 3298
551 1 3302 3301 3303 3304
552 1 3309 3308 3310 3311
553 1 3314 3313 3315 3316
554 1 3320 3319 3321 3322
555 1 3326 3325 3327 3328
556 1 3332 3331 3333 3334
557 1 3338 3337 3339 3340
558 1 3344 3343 3345 3346
559 1 3350 3349 3351 3352
560 1 3356 3355 3357 3358
561 1 3362 3361 3363 3364
562 1 3368 3367 3369 3370
563 1 3374 3373 3375 3376
564 1 3380 3379 3381 3382
565 1 3386 3385 3387 3388
566 1 3392 3391 3393 3394
567 1 3398 3397 3399 3400
568 1 3404 3403 3405 3406
569 1 3410 3409 3411 3412
570 1 3416 3415 3417 3418
571 1 3423 3422 3424 3425
572 1 3428 3427 3429 3430
573 1 3434 3433 3435 3436
574 1 3440 3439 3441 3442
575 1 3446 3445 3447 3448
576 1 3452 3451 3453 3454
577 1 3458 3457 3459 3460
578 1 3464 3463 3465 3466
579 1 3470 3469 3471 3472
580 1 3476 3475 3477 3478
581 1 3482 3481 3483 3484
582 1 3488 3487 3489 3490
583 1 3494 3493 3495 3496
584 1 3500 3499 3501 3502
585 1 3506 3505 3507 3508
586 1 3512 3511 3513 3514
587 1 3518 3517 3519 3520
588 1 3524 3523 3525 3526
589 1 3530 3529 3531 3532
590 1 3537 3536 3538 3539
591 1 3542 3541 3543 3544
592 1 3548 3547 3549 3550
593 1 3554 3553 3555 3556
594 1 3560 3559 3561 3562
595 1 3566 3565 3567 3568
596 1 3572 3571 3573 3574
597 1 3578 3577 3579 3580
598 1 3584 3583 3585 3586
599 1 3590 3589 3591 3592
600 1 3596 3595 3597 3598
601 1 3602 3601 3603 3604
602 1 3608 3607 3609 3610
603 1 3614 3613 3615 3616
604 1 3620 3619 3621 3622
605 1 3626 3625 3627 3628
606 1 3632 3631 3633 3634
607 1 3638 3637 3639 3640
608 1 3644 3643 3645 3646
609 1 3651 3650 3652 3653
610 1 3656 3655 3657 3658
611 1 3662 3661 3663 3664
612 1 3668 3667 3669 3670
613 1 3674 3673 3675 3676
614 1 3680 3679 3681 3682
615 1 3686 3685 3687 3688
616 1 3692 3691 3693 3694
617 1 3698 3697 3699 3700
618 1 3704 3703 3705 3706
619 1 3710 3709 3711 3712
620 1 3716 3715 3717 3718
621 1 3722 3721 3723 3724
622 1 3728 3727 3729 3730
623 1 3734 3733 3735 3736
624 1 3740 3739 3741 3742
625 1 3746 3745 3747 3748
626 1 3752 3751 3753 3754
627 1 3758 3757 3759 3760
628 1 3765 3764 3766 3767
629 1 3770 3769 3771 3772
630 1 3776 3775 3777 3778
631 1 3782 3781 3783 3784
632 1 3788 3787 3789 3790
633 1 3794 3793 3795 3796
634 1 3800 3799 3801 3802
635 1 3806 3805 3807 3808
636 1 3812 3811 3813 3814
637 1 3818 3817 3819 3820
638 1 3824 3823 3825 3826
639 1 3830 3829 3831 3832
640 1 3836 3835 3837 3838
641 1 3842 3841 3843 3844
642 1 3848 3847 3849 3850
643 1 3854 3853 3855 3856
644 1 3860 3859 3861 3862
645 1 3866 3865 3867 3868
646 1 3872 3871 3873 3874
647 1 3879 3878 3880 3881
648 1 3884 3883 3885 3886
649 1 3890 3889 3891 3892
650 1 3896 3895 3897 3898
651 1 3902 3901 3903 3904
652 1 3908 3907 3909 3910
653 1 3914 3913 3915 3916
654 1 3920 3919 3921 3922
655 1 3926 3925 3927 3928
656 1 3932 3931 3933 3934
657 1 3938 3937 3939 3940
658 1 3944 3943 3945 3946
659 1 3950 3949 3951 3952
660 1 3956 3955 3957 3958
661 1 3962 3961 3963 3964
662 1 3968 3967 3969 3970
663 1 3974 3973 3975 3976
664 1 3980 3979 3981 3982
665 1 3986 3985 3987 3988
666 1 3993 3992 3994 3995
667 1 3998 3997 3999 4000
668 1 4004 4003 4005 4006
669 1 4010 4009 4011 4012
670 1 4016 4015 4017 4018
671 1 4022 4021 4023 4024
672 1 4028 4027 4029 4030
673 1 4034 4033 4035 4036
674 1 4040 4039 4041 4042
675 1 4046 4045 4047 4048
676 1 4052 4051 4053 4054
677 1 4058 4057 4059 4060
678 1 4064 4063 4065 4066
679 1 4070 4069 4071 4072
680 1 4076 4075 4077 4078
681 1 4082 4081 4083 4084
682 1 4088 4087 4089 4090
683 1 4094 4093 4095 4096
684 1 4100 4099 4101 4102
685 1 4107 4106 4108 4109
686 1 4112 4111 4113 4114
687 1 4118 4117 4119 4120
688 1 4124 4123 4125 4126
689 1 4130 4129 4131 4132
690 1 4136 4135 4137 4138
691 1 4142 4141 4143 4144
692 1 4148 4147 4149 4150
693 1 4154 4153 4155 4156
694 1 4160 4159 4161 4162
695 1 4166 4165 4167 4168
696 1 4172 4171 4173 4174
697 1 4178 4177 4179 4180
698 1 4184 4183 4185 4186
699 1 4190 4189 4191 4192
700 1 4196 4195 4197 4198
701 1 4202 4201 4203 4204
702 1 4208 4207 4209 4210
703 1 4214 4213 4215 4216
704 1 4221 4220 4222 4223
705 1 4226 4225 4227 4228
706 1 4232 4231 4233 4234
707 1 4238 4237 4239 4240
708 1 4244 4243 4245 4246
709 1 4250 4249 4251 4252
710 1 4256 4255 4257 4258
711 1 4262 4261 4263 4264
712 1 4268 4267 4269 4270
713 1 4274 4273 4275 4276
714 1 4280 4279 4281 4282
715 1 4286 4285 4287 4288
716 1 4292 4291 4293 4294
717 1 4298 4297 4299 4300
718 1 4304 4303 4305 4306
719 1 4310 4309 4311 4312
720 1 4316 4315 4317 4318
721 1 4322 4321 4323 4324
722 1 4328 4327 4329 4330
723 1 4335 4334 4336 4337
724 1 4340 4339 4341 4342
725 1 4346 4345 4347 4348
726 1 4352 4351 4353 4354
727 1 4358 4357 4359 4360
728 1 4364 4363 4365 4366
729 1 4370 4369 4371 4372
730 1 4376 4375 4377 4378
731 1 4382 4381 4383 4384
732 1 4388 4387 4389 4390
733 1 4394 4393 4395 4396
734 1 4400 4399 4401 4402
735 1 4406 4405 4407 4408
736 1 4412 4411 4413 4414
737 1 4418 4417 4419 4420
738 1 4424 4423 4425 4426
739 1 4430 4429 4431 4432
740 1 4436 4435 4437 4438
741 1 4442 4441 4443 4444
742 1 4449 4448 4450 4451
743 1 4454 4453 4455 4456
744 1 4460 4459 4461 4462
745 1 4466 4465 4467 4468
746 1 4472 4471 4473 4474
747 1 4478 4477 4479 4480
748 1 4484 4483 4485 4486
749 1 4490 4489 4491 4492
750 1 4496 4495 4497 4498
751 1 4502 4501 4503 4504
752 1 4508 4507 4509 4510
753 1 4514 4513 4515 4516
754 1 4520 4519 4521 4522
755 1 4526 4525 4527 4528
756 1 4532 4531 4533 4534
757 1 4538 4537 4539 4540
758 1 4544 4543 4545 4546
759 1 4550 4549 4551 4552
760 1 4556 4555 4557 4558
761 1 4563 4562 4564 4565
762 1 4568 4567 4569 4570
763 1 4574 4573 4575 4576
764 1 4580 4579 4581 4582
765 1 4586 4585 4587 4588
766 1 4592 4591 4593 4594
767 1 4598 4597 4599 4600
768 1 4604 4603 4605 4606
769 1 4610 4609 4611 4612
770 1 4616 4615 4617 4618
771 1 4622 4621 4623 4624
772 1 4628 4627 4629 4630
773 1 4634 4633 4635 4636
774 1 4640 4639 4641 4642
775 1 4646 4645 4647 4648
776 1 4652 4651 4653 4654
777 1 4658 4657 4659 4660
778 1 4664 4663 4665 4666
779 1 4670 4669 4671 4672
780 1 4677 4676 4678 4679
781 1 4682 4681 4683 4684
782 1 4688 4687 4689 4690
783 1 4694 4693 4695 4696
784 1 4700 4699 4701 4702
785 1 4706 4705 4707 4708
786 1 4712 4711 4713 4714
787 1 4718 4717 4719 4720
788 1 4724 4723 4725 4726
789 1 4730 4729 4731 4732
790 1 4736 4735 4737 4738
791 1 4742 4741 4743 4744
792 1 4748 4747 4749 4750
793 1 4754 4753 4755 4756
794 1 4760 4759 4761 4762
795 1 4766 4765 4767 4768
796 1 4772 4771 4773 4774
797 1 4778 4777 4779 4780
798 1 4784 4783 4785 4786
799 1 4791 4790 4792 4793
800 1 4796 4795 4797 4798
801 1 4802 4801 4803 4804
802 1 4808 4807 4809 4810
803 1 4814 4813 4815 4816
804 1 4820 4819 4821 4822
805 1 4826 4825 4827 4828
806 1 4832 4831 4833 4834
807 1 4838 4837 4839 4840
808 1 4844 4843 4845 4846
809 1 4850 4849 4851 4852
810 1 4856 4855 4857 4858
811 1 4862 4861 4863 4864
812 1 4868 4867 4869 4870
813 1 4874 4873 4875 4876
814 1 4880 4879 4881 4882
815 1 4886 4885 4887 4888
816 1 4892 4891 4893 4894
817 1 4898 4897 4899 4900
818 1 4905 4904 4906 4907
819 1 4910 4909 4911 4912
820 1 4916 4915 4917 4918
821 1 4922 4921 4923 4924
822 1 4928 4927 4929 4930
823 1 4934 4933 4935 4936
824 1 4940 4939 4941 4942
825 1 4946 4945 4947 4948
826 1 4952 4951 4953 4954
827 1 4958 4957 4959 4960
828 1 4964 4963 4965 4966
829 1 4970 4969 4971 4972
830 1 4976 4975 4977 4978
831 1 4982 4981 4983 4984
832 1 4988 4987 4989 4990
833 1 4994 4993 4995 4996
834 1 5000 4999 5001 5002
835 1 5006 5005 5007 5008
836 1 5012 5011 5013 5014
837 1 5019 5018 5020 5021
838 1 5024 5023 5025 5026
839 1 5030 5029 5031 5032
840 1 5036 5035 5037 5038
841 1 5042 5041 5043 5044
842 1 5048 5047 5049 5050
843 1 5054 5053 5055 5056
844 1 5060 5059 5061 5062
845 1 5066 5065 5067 5068
846 1 5072 5071 5073 5074
847 1 5078 5077 5079 5080
848 1 5084 5083 5085 5086
849 1 5090 5089 5091 5092
850 1 5096 5095 5097 5098
851 1 5102 5101 5103 5104
852 1 5108 5107 5109 5110
853 1 5114 5113 5115 5116
854 1 5120 5119 5121 5122
855 1 5126 5125 5127 5128
856 1 5133 5132 5134 5135
857 1 5138 5137 5139 5140
858 1 5144 5143 5145 5146
859 1 5150 5149 5151 5152
860 1 5156 5155 5157 5158
861 1 5162 5161 5163 5164
862 1 5168 5167 5169 5170
863 1 5174 5173 5175 5176
864 1 5180 5179 5181 5182
865 1 5186 5185 5187 5188
866 1 5192 5191 5193 5194
867 1 5198 5197 5199 5200
868 1 5204 5203 5205 5206
869 1 5210 5209 5211 5212
870 1 5216 5215 5217 5218
871 1 5222 5221 5223 5224
872 1 5228 5227 5229 5230
873 1 5234 5233 5235 5236
874 1 5240 5239 5241 5242
875 1 5247 5246 5248 5249
876 1 5252 5251 5253 5254
877 1 5258 5257 5259 5260
878 1 5264 5263 5265 5266
879 1 5270 5269 5271 5272
880 1 5276 5275 5277 5278
881 1 5282 5281 5283 5284
882 1 5288 5287 5289 5290
883 1 5294 5293 5295 5296
884 1 5300 5299 5301 5302
885 1 5306 5305 5307 5308
886 1 5312 5311 5313 5314
887 1 5318 5317 5319 5320
888 1 5324 5323 5325 5326
889 1 5330 5329 5331 5332
890 1 5336 5335 5337 5338
891 1 5342 5341 5343 5344
892 1 5348 5347 5349 5350
893 1 5354 5353 5355 5356
894 1 5361 5360 5362 5363
895 1 5366 5365 5367 5368
896 1 5372 5371 5373 5374
897 1 5378 5377 5379 5380
898 1 5384 5383 5385 5386
899 1 5390 5389 5391 5392
900 1 5396 5395 5397 5398
901 1 5402 5401 5403 5404
902 1 5408 5407 5409 5410
903 1 5414 5413 5415 5416
904 1 5420 5419 5421 5422
905 1 5426 5425 5427 5428
906 1 5432 5431 5433 5434
907 1 5438 5437 5439 5440
908 1 5444 5443 5445 5446
909 1 5450 5449 5451 5452
910 1 5456 5455 5457 5458
911 1 5462 5461 5463 5464
912 1 5468 5467 5469 5470
913 1 5475 5474 5476 5477
914 1 5480 5479 5481 5482
915 1 5486 5485 5487 5488
916 1 5492 5491 5493 5494
917 1 5498 5497 5499 5500
918 1 5504 5503 5505 5506
919 1 5510 5509 5511 5512
920 1 5516 5515 5517 5518
921 1 5522 5521 5523 5524
922 1 5528 5527 5529 5530
923 1 5534 5533 5535 5536
924 1 5540 5539 5541 5542
925 1 5546 5545 5547 5548
926 1 5552 5551 5553 5554
927 1 5558 5557 5559 5560
928 1 5564 5563 5565 5566
929 1 5570 5569 5571 5572
930 1 5576 5575 5577 5578
931 1 5582 5581 5583 5584
